     Program PWSCF v.7.2 starts on  4Oct2023 at 23:40:44

     Waiting for input...
     Reading input from standard input
Warning: card &CELL ignored
Warning: card / ignored

     Current dimensions of program PWSCF are:
     Max number of different atomic species (ntypx) = 10
     Max number of k-points (npk) =  40000
     Max angular momentum in pseudopotentials (lmaxx) =  4
     file Mo.pbe-spn-kjpaw_psl.1.0.0.UPF: wavefunction(s)  4S 4D renormalized
     file S.pbe-n-kjpaw_psl.1.0.0.UPF: wavefunction(s)  3S 3P renormalized
     file Pd.pbe-spn-kjpaw_psl.1.0.0.UPF: wavefunction(s)  4S 5S 4D renormalized

     R & G space division:  proc/nbgrp/npool/nimage =      36
     Subspace diagonalization in iterative solution of the eigenvalue problem:
     one sub-group per band group will be used

     Using Slab Decomposition

     bravais-lattice index     =            0
     lattice parameter (alat)  =      23.8199  a.u.
     unit-cell volume          =   33861.0370 (a.u.)^3
     number of atoms/cell      =          194
     number of atomic types    =            3
     number of electrons       =      1700.00
     number of Kohn-Sham states=         1020
     kinetic-energy cutoff     =      77.0000  Ry
     charge density cutoff     =     539.0000  Ry
     scf convergence threshold =      1.0E-06
     mixing beta               =       0.2000
     number of iterations used =            8  plain     mixing
     energy convergence thresh.=      1.0E-04
     force convergence thresh. =      1.0E-03
     Exchange-correlation= SLA  PW   PBX  PBC
                           (   1   4   3   4   0   0   0)
     nstep                     =         1000

     Effective Screening Medium Method
     Boundary Conditions: Vacuum-Slab-Vacuum
     total charge in unit cell        =   0.0000
     grid points for fit at edges     =        4

     celldm(1)=  23.819920  celldm(2)=   0.000000  celldm(3)=   0.000000
     celldm(4)=   0.000000  celldm(5)=   0.000000  celldm(6)=   0.000000

     crystal axes: (cart. coord. in units of alat)
               a(1) = (   1.000000   0.000000   0.000000 )
               a(2) = (  -0.499999   0.866026   0.000000 )
               a(3) = (   0.000000   0.000000   2.893000 )

     reciprocal axes: (cart. coord. in units 2 pi/alat)
               b(1) = (  1.000000  0.577349  0.000000 )
               b(2) = (  0.000000  1.154700  0.000000 )
               b(3) = (  0.000000  0.000000  0.345662 )

     PseudoPot. # 1 for Mo read from file:
     ./pseudo/Mo.pbe-spn-kjpaw_psl.1.0.0.UPF
     MD5 check sum: 317bf72632116215fd98f72de1686f13
     Pseudo is Projector augmented-wave + core cor, Zval = 14.0
     Generated using 'atomic' code by A. Dal Corso  v.7.2
     Shape of augmentation charge: PSQ
     Using radial grid of 1229 points,  6 beta functions with:
                l(1) =   0
                l(2) =   0
                l(3) =   1
                l(4) =   1
                l(5) =   2
                l(6) =   2
     Q(r) pseudized with 0 coefficients

     PseudoPot. # 2 for S  read from file:
     ./pseudo/S.pbe-n-kjpaw_psl.1.0.0.UPF
     MD5 check sum: 8b7b5302570d38d5e87fed6a1065abda
     Pseudo is Projector augmented-wave + core cor, Zval =  6.0
     Generated using 'atomic' code by A. Dal Corso  v.7.2
     Shape of augmentation charge: PSQ
     Using radial grid of 1151 points,  6 beta functions with:
                l(1) =   0
                l(2) =   0
                l(3) =   1
                l(4) =   1
                l(5) =   2
                l(6) =   2
     Q(r) pseudized with 0 coefficients

     PseudoPot. # 3 for Pd read from file:
     ./pseudo/Pd.pbe-spn-kjpaw_psl.1.0.0.UPF
     MD5 check sum: a60571a671f2502b8a6a4569d20a6edb
     Pseudo is Projector augmented-wave + core cor, Zval = 18.0
     Generated using 'atomic' code by A. Dal Corso  v.7.2
     Shape of augmentation charge: PSQ
     Using radial grid of 1235 points,  6 beta functions with:
                l(1) =   0
                l(2) =   0
                l(3) =   1
                l(4) =   1
                l(5) =   2
                l(6) =   2
     Q(r) pseudized with 0 coefficients

     atomic species   valence    mass     pseudopotential
        Mo            14.00    95.95000     Mo( 1.00)
        S              6.00    32.06000     S ( 1.00)
        Pd            18.00   106.42000     Pd( 1.00)

     No symmetry found

   Cartesian axes

     site n.     atom                  positions (alat units)
         1           Mo  tau(   1) = (   0.0000010   0.1443372  -0.7272732  )
         2           Mo  tau(   2) = (   0.1249995   0.0721706  -0.2424038  )
         3           S   tau(   3) = (   0.0000015   0.1443386  -0.3667807  )
         4           S   tau(   4) = (   0.1250010   0.0721682  -0.6030489  )
         5           S   tau(   5) = (   0.1250010   0.0721683  -0.8514963  )
         6           S   tau(   6) = (   0.0000015   0.1443389  -0.1180260  )
         7           Mo  tau(   7) = (   0.0000007   0.1443589   0.2424205  )
         8           Mo  tau(   8) = (   0.1250041   0.0720322   0.7266168  )
         9           S   tau(   9) = (   0.0000742   0.1444871   0.6020949  )
        10           S   tau(  10) = (   0.1250024   0.0721701   0.3667478  )
        11           S   tau(  11) = (   0.1250035   0.0721876   0.1180348  )
        12           S   tau(  12) = (  -0.0004118   0.1430864   0.8514340  )
        13           Mo  tau(  13) = (  -0.1249989   0.3608437  -0.7272732  )
        14           Mo  tau(  14) = (   0.0000030   0.2886752  -0.2424042  )
        15           S   tau(  15) = (  -0.1249977   0.3608450  -0.3667802  )
        16           S   tau(  16) = (   0.0000012   0.2886747  -0.6030489  )
        17           S   tau(  17) = (   0.0000012   0.2886748  -0.8514963  )
        18           S   tau(  18) = (  -0.1249977   0.3608454  -0.1180274  )
        19           Mo  tau(  19) = (  -0.1249729   0.3608584   0.2424608  )
        20           Mo  tau(  20) = (  -0.0007193   0.2876626   0.7275440  )
        21           S   tau(  21) = (  -0.1251115   0.3607789   0.6027257  )
        22           S   tau(  22) = (   0.0000621   0.2887099   0.3668377  )
        23           S   tau(  23) = (  -0.0000096   0.2886902   0.1180527  )
        24           S   tau(  24) = (  -0.1254673   0.3605734   0.8517408  )
        25           Mo  tau(  25) = (  -0.2499987   0.5773502  -0.7272732  )
        26           Mo  tau(  26) = (  -0.1249977   0.5051839  -0.2424055  )
        27           S   tau(  27) = (  -0.2499981   0.5773518  -0.3667809  )
        28           S   tau(  28) = (  -0.1249986   0.5051812  -0.6030489  )
        29           S   tau(  29) = (  -0.1249986   0.5051813  -0.8514963  )
        30           S   tau(  30) = (  -0.2499979   0.5773512  -0.1180266  )
        31           Mo  tau(  31) = (  -0.2499795   0.5773389   0.2424205  )
        32           Mo  tau(  32) = (  -0.1262356   0.5050639   0.7275441  )
        33           S   tau(  33) = (  -0.2498323   0.5773390   0.6020948  )
        34           S   tau(  34) = (  -0.1249376   0.5052159   0.3668377  )
        35           S   tau(  35) = (  -0.1249905   0.5051638   0.1180531  )
        36           S   tau(  36) = (  -0.2512883   0.5776183   0.8514340  )
        37           Mo  tau(  37) = (  -0.3749985   0.7938567  -0.7272732  )
        38           Mo  tau(  38) = (  -0.2500001   0.7216874  -0.2424031  )
        39           S   tau(  39) = (  -0.3749980   0.7938584  -0.3667800  )
        40           S   tau(  40) = (  -0.2499984   0.7216877  -0.6030489  )
        41           S   tau(  41) = (  -0.2499984   0.7216878  -0.8514963  )
        42           S   tau(  42) = (  -0.3749982   0.7938585  -0.1180264  )
        43           Mo  tau(  43) = (  -0.3749962   0.7938568   0.2423838  )
        44           Mo  tau(  44) = (  -0.2501148   0.7217588   0.7266170  )
        45           S   tau(  45) = (  -0.3749945   0.7938590   0.6021274  )
        46           S   tau(  46) = (  -0.2499958   0.7216877   0.3667488  )
        47           S   tau(  47) = (  -0.2499810   0.7216794   0.1180323  )
        48           S   tau(  48) = (  -0.3749953   0.7938585   0.8511588  )
        49           Mo  tau(  49) = (   0.2500010   0.1443372  -0.7272732  )
        50           Mo  tau(  50) = (   0.3750034   0.0721723  -0.2424032  )
        51           S   tau(  51) = (   0.2500017   0.1443391  -0.3667788  )
        52           S   tau(  52) = (   0.3750010   0.0721682  -0.6030489  )
        53           S   tau(  53) = (   0.3750010   0.0721683  -0.8514963  )
        54           S   tau(  54) = (   0.2500016   0.1443391  -0.1180271  )
        55           Mo  tau(  55) = (   0.2500054   0.1443594   0.2424211  )
        56           Mo  tau(  56) = (   0.3749279   0.0721263   0.7263991  )
        57           S   tau(  57) = (   0.2499344   0.1444864   0.6020948  )
        58           S   tau(  58) = (   0.3750316   0.0721860   0.3667597  )
        59           S   tau(  59) = (   0.3749924   0.0721644   0.1180346  )
        60           S   tau(  60) = (   0.2504199   0.1430865   0.8514340  )
[...]
       180           S   tau( 180) = (   0.5012979   0.5776190   0.8514332  )
       181           Mo  tau( 181) = (   0.3750016   0.7938567  -0.7272732  )
       182           Mo  tau( 182) = (   0.5000025   0.7216901  -0.2424039  )
       183           S   tau( 183) = (   0.3750019   0.7938578  -0.3667793  )
       184           S   tau( 184) = (   0.5000016   0.7216877  -0.6030489  )
       185           S   tau( 185) = (   0.5000016   0.7216878  -0.8514963  )
       186           S   tau( 186) = (   0.3750020   0.7938579  -0.1180272  )
       187           Mo  tau( 187) = (   0.3749848   0.7938487   0.2424206  )
       188           Mo  tau( 188) = (   0.5001249   0.7217591   0.7266160  )
       189           S   tau( 189) = (   0.3749125   0.7937251   0.6020942  )
       190           S   tau( 190) = (   0.5000021   0.7216868   0.3667472  )
       191           S   tau( 191) = (   0.4999874   0.7216780   0.1180346  )
       192           S   tau( 192) = (   0.3758826   0.7948451   0.8514332  )
       193           Pd  tau( 193) = (   0.1250063   0.5051842   0.9601361  )
       194           Pd  tau( 194) = (   0.2504570   0.1431183   1.0259454  )

     DFT-D3 Dispersion Correction (3-body terms):
       Reference C6 values for interpolation:

         atom   Coordination number   C6
         S          0.000           268.01
         S          0.995           261.99
         S          1.990           251.62
         Mo         0.000          1691.79
         Mo         1.942          1004.01
         Mo        11.056           674.22
         Pd         0.000          1217.01
         Pd         1.863           573.90
         Pd         5.710           531.75

       Values used:

         atom   Coordination number  R0_AB[au]  C6      C8
         Mo        10.208            3.547    674.22  77634.20
         Mo        10.221            3.547    674.22  77634.20
         S          3.858            3.128    251.62  12327.25
         S          3.859            3.128    251.62  12327.25
[...]
     atom   14 type  1   force =     0.00000000    0.00000000    0.00000000
     atom   15 type  2   force =     0.00000000    0.00000000    0.00000000
     atom   16 type  2   force =     0.00000000    0.00000000    0.00000000
     atom   17 type  2   force =     0.00000000    0.00000000    0.00000000
     atom   18 type  2   force =     0.00000000    0.00000000    0.00000000
     atom   19 type  1   force =    -0.00000368   -0.00000255    0.00001755
     atom   20 type  1   force =    -0.00000041   -0.00000231    0.00003869
     atom   21 type  2   force =     0.00000937   -0.00000788    0.00001478
     atom   22 type  2   force =     0.00000807   -0.00001061   -0.00000002
     atom   23 type  2   force =    -0.00000396   -0.00000181   -0.00000212
     atom   24 type  2   force =    -0.00000356   -0.00000228    0.00000844
     atom   25 type  1   force =     0.00000000    0.00000000    0.00000000
     atom   26 type  1   force =     0.00000000    0.00000000    0.00000000
     atom   27 type  2   force =     0.00000000    0.00000000    0.00000000
     atom   28 type  2   force =     0.00000000    0.00000000    0.00000000
     atom   29 type  2   force =     0.00000000    0.00000000    0.00000000
     atom   30 type  2   force =     0.00000000    0.00000000    0.00000000
     atom   31 type  1   force =     0.00000253   -0.00000121    0.00001391
     atom   32 type  1   force =    -0.00000148   -0.00000821   -0.00000279
     atom   33 type  2   force =     0.00000077    0.00001031    0.00001005
     atom   34 type  2   force =     0.00000202    0.00000334   -0.00000855
     atom   35 type  2   force =    -0.00000257   -0.00000259    0.00000158
     atom   36 type  2   force =    -0.00000407   -0.00000368    0.00001586
     atom   37 type  1   force =     0.00000000    0.00000000    0.00000000
     atom   38 type  1   force =     0.00000000    0.00000000    0.00000000
     atom   39 type  2   force =     0.00000000    0.00000000    0.00000000
     atom   40 type  2   force =     0.00000000    0.00000000    0.00000000
     atom   41 type  2   force =     0.00000000    0.00000000    0.00000000
     atom   42 type  2   force =     0.00000000    0.00000000    0.00000000
     atom   43 type  1   force =    -0.00000247    0.00001592    0.00004712
     atom   44 type  1   force =    -0.00000707   -0.00000341    0.00003627
     atom   45 type  2   force =    -0.00000056    0.00000918    0.00001142
     atom   46 type  2   force =    -0.00000324    0.00001341    0.00000055
     atom   47 type  2   force =     0.00000237   -0.00000292   -0.00000187
     atom   48 type  2   force =    -0.00000011   -0.00001517    0.00002523
     atom   49 type  1   force =     0.00000000    0.00000000    0.00000000
     atom   50 type  1   force =     0.00000000    0.00000000    0.00000000
     atom   51 type  2   force =     0.00000000    0.00000000    0.00000000
     atom   52 type  2   force =     0.00000000    0.00000000    0.00000000
     atom   53 type  2   force =     0.00000000    0.00000000    0.00000000
     atom   54 type  2   force =     0.00000000    0.00000000    0.00000000
     atom   55 type  1   force =    -0.00000699   -0.00000788    0.00006394
     atom   56 type  1   force =    -0.00004057    0.00000763    0.00007966
     atom   57 type  2   force =    -0.00000232    0.00000273    0.00001960
     atom   58 type  2   force =    -0.00000767    0.00000535    0.00000595
     atom   59 type  2   force =    -0.00000070   -0.00000315   -0.00000238
     atom   60 type  2   force =    -0.00000442   -0.00000218    0.00002628
[...]
     atom  180 type  2   force =     0.00000788    0.00000091    0.00001529
     atom  181 type  1   force =     0.00000000    0.00000000    0.00000000
     atom  182 type  1   force =     0.00000000    0.00000000    0.00000000
     atom  183 type  2   force =     0.00000000    0.00000000    0.00000000
     atom  184 type  2   force =     0.00000000    0.00000000    0.00000000
     atom  185 type  2   force =     0.00000000    0.00000000    0.00000000
     atom  186 type  2   force =     0.00000000    0.00000000    0.00000000
     atom  187 type  1   force =     0.00000490    0.00000913    0.00002279
     atom  188 type  1   force =     0.00002266   -0.00000595    0.00001534
     atom  189 type  2   force =    -0.00000390    0.00000251    0.00000792
     atom  190 type  2   force =     0.00001018    0.00001108   -0.00000309
     atom  191 type  2   force =    -0.00000321    0.00000178   -0.00000067
     atom  192 type  2   force =    -0.00000571    0.00000335    0.00002066
     atom  193 type  3   force =    -0.00001090   -0.00000021    0.00009308
     atom  194 type  3   force =    -0.00003655    0.00000759   -0.00008293

     DFT-D3 dispersion contribution to forces:
     atom    1 type  1   force =     0.00000005    0.00000003    0.00255963
     atom    2 type  1   force =    -0.00000002    0.00000004    0.00001468
     atom    3 type  2   force =     0.00000001   -0.00000001   -0.00003327
     atom    4 type  2   force =    -0.00000001   -0.00000001    0.00017169
     atom    5 type  2   force =     0.00000001   -0.00000002    0.00441417
     atom    6 type  2   force =     0.00000003    0.00000009    0.00009790
     atom    7 type  1   force =    -0.00000227   -0.00000911   -0.00000751
     atom    8 type  1   force =     0.00013498    0.00016196   -0.00209696
     atom    9 type  2   force =     0.00005077   -0.00000874   -0.00004967
     atom   10 type  2   force =    -0.00000019   -0.00001895    0.00003968
     atom   11 type  2   force =     0.00000047   -0.00000038   -0.00009565
     atom   12 type  2   force =     0.00045478    0.00027576   -0.00405722
     atom   13 type  1   force =     0.00000005    0.00000000    0.00255963
     atom   14 type  1   force =     0.00000010    0.00000007    0.00001479
     atom   15 type  2   force =     0.00000002   -0.00000002   -0.00003316
     atom   16 type  2   force =     0.00000002   -0.00000001    0.00017170
     atom   17 type  2   force =     0.00000001   -0.00000001    0.00441426
     atom   18 type  2   force =     0.00000022    0.00000007    0.00009792
     atom   19 type  1   force =    -0.00000981   -0.00000821   -0.00002037
     atom   20 type  1   force =     0.00035694    0.00005554   -0.00195499
     atom   21 type  2   force =     0.00001655    0.00001773   -0.00007681
     atom   22 type  2   force =    -0.00000353   -0.00001926    0.00003644
     atom   23 type  2   force =     0.00000010   -0.00000056   -0.00009938
     atom   24 type  2   force =     0.00043839    0.00013060   -0.00420417
     atom   25 type  1   force =     0.00000003    0.00000001    0.00255958
     atom   26 type  1   force =     0.00000012    0.00000002    0.00001473
     atom   27 type  2   force =     0.00000001    0.00000003   -0.00003322
     atom   28 type  2   force =     0.00000001    0.00000000    0.00017168
     atom   29 type  2   force =     0.00000003    0.00000001    0.00441437
     atom   30 type  2   force =     0.00000009    0.00000001    0.00009788
     atom   31 type  1   force =    -0.00000957    0.00000380   -0.00000874
     atom   32 type  1   force =     0.00023441   -0.00000165   -0.00223808
     atom   33 type  2   force =    -0.00000084    0.00000193   -0.00011995
     atom   34 type  2   force =    -0.00001689    0.00000634    0.00003793
     atom   35 type  2   force =    -0.00000040    0.00000023   -0.00009957
     atom   36 type  2   force =     0.00027462    0.00007171   -0.00426879
     atom   37 type  1   force =     0.00000002    0.00000003    0.00255967
     atom   38 type  1   force =     0.00000003    0.00000002    0.00001469
     atom   39 type  2   force =     0.00000000    0.00000001   -0.00003323
     atom   40 type  2   force =    -0.00000001    0.00000002    0.00017167
     atom   41 type  2   force =    -0.00000003    0.00000004    0.00441433
     atom   42 type  2   force =     0.00000003    0.00000004    0.00009790
     atom   43 type  1   force =     0.00000061    0.00000141    0.00000487
     atom   44 type  1   force =     0.00007342    0.00024247   -0.00214046
     atom   45 type  2   force =     0.00001928    0.00003802   -0.00007946
     atom   46 type  2   force =    -0.00001599    0.00001080    0.00003776
     atom   47 type  2   force =    -0.00000055    0.00000048   -0.00009596
     atom   48 type  2   force =     0.00018579    0.00030470   -0.00415143
     atom   49 type  1   force =    -0.00000001    0.00000004    0.00255961
     atom   50 type  1   force =     0.00000006    0.00000002    0.00001473
     atom   51 type  2   force =    -0.00000002   -0.00000002   -0.00003320
     atom   52 type  2   force =     0.00000002    0.00000000    0.00017172
     atom   53 type  2   force =    -0.00000001    0.00000001    0.00441416
     atom   54 type  2   force =    -0.00000000    0.00000008    0.00009807
     atom   55 type  1   force =     0.00000421   -0.00000876   -0.00000714
     atom   56 type  1   force =    -0.00014713    0.00006935   -0.00211200
     atom   57 type  2   force =    -0.00000739   -0.00000499    0.00013756
     atom   58 type  2   force =    -0.00000060   -0.00000094    0.00004564
     atom   59 type  2   force =    -0.00000080    0.00000007   -0.00009513
     atom   60 type  2   force =    -0.00009452    0.00026408   -0.00447656
[...]
     atom  180 type  2   force =    -0.00027441   -0.00004692   -0.00429263
     atom  181 type  1   force =    -0.00000002   -0.00000002    0.00255964
     atom  182 type  1   force =    -0.00000006   -0.00000001    0.00001469
     atom  183 type  2   force =     0.00000000   -0.00000001   -0.00003321
     atom  184 type  2   force =     0.00000001    0.00000001    0.00017167
     atom  185 type  2   force =     0.00000003    0.00000004    0.00441438
     atom  186 type  2   force =    -0.00000008   -0.00000004    0.00009784
     atom  187 type  1   force =     0.00000670    0.00000820   -0.00001028
     atom  188 type  1   force =     0.00001909    0.00005727   -0.00233039
     atom  189 type  2   force =     0.00000601   -0.00000538   -0.00012033
     atom  190 type  2   force =     0.00001799    0.00000982    0.00003693
     atom  191 type  2   force =     0.00000092    0.00000038   -0.00009602
     atom  192 type  2   force =    -0.00007544   -0.00015090   -0.00426245
     atom  193 type  3   force =     0.00017009   -0.00059485    0.00256263
     atom  194 type  3   force =    -0.00011814    0.00038147   -0.00539060

     Total force =     0.003094     Total SCF correction =     0.000288
     Energy error            =      1.7E-05 Ry
     Gradient error          =      9.3E-04 Ry/Bohr

     bfgs converged in  10 scf cycles and   9 bfgs steps
     (criteria: energy <  1.0E-04 Ry, force <  1.0E-03 Ry/Bohr)

     End of BFGS Geometry Optimization

     Final energy             =  -32817.5674455474 Ry

     File ./outdir/pwscf.bfgs deleted, as requested
Begin final coordinates

ATOMIC_POSITIONS (angstrom)
Mo            0.0000119917        1.8193638619       -9.1672481230    0   0   0
Mo            1.5756136568        0.9097075315       -3.0554901653    0   0   0
S             0.0000188998        1.8193822938       -4.6232556019    0   0   0
S             1.5756321638        0.9096773839       -7.6014065489    0   0   0
S             1.5756326175        0.9096785128      -10.7330757790    0   0   0
S             0.0000189190        1.8193860094       -1.4877129945    0   0   0
Mo            0.0000806980        1.8195489488        3.0559247644
Mo            1.5695101157        0.9042279777        9.1499827768
S            -0.0042169029        1.8258884522        7.5896747230
S             1.5758558182        0.9098784740        4.6233838578
S             1.5755866763        0.9097993297        1.4879984994
S             0.0006281298        1.7997380966       10.7348199715
Mo           -1.5756053507        4.5484193819       -9.1672481230    0   0   0
Mo            0.0000378379        3.6387394919       -3.0554952701    0   0   0
S            -1.5755913433        4.5484363582       -4.6232494962    0   0   0
S             0.0000148214        3.6387329039       -7.6014065489    0   0   0
S             0.0000152751        3.6387340328      -10.7330757790    0   0   0
S            -1.5755906502        4.5484413613       -1.4877305502    0   0   0
Mo           -1.5753526770        4.5485520565        3.0560857553
Mo           -0.0059873071        3.6265692825        9.1778845603
S            -1.5728567619        4.5485388737        7.6029864767
S             0.0005318942        3.6391782897        4.6237957917
S             0.0000753328        3.6388162827        1.4881406087
S            -1.5802200452        4.5454896190       10.7393822375
Mo           -3.1512226931        7.2774749019       -9.1672481230    0   0   0
Mo           -1.5755910988        6.3678216792       -3.0555115988    0   0   0
S            -3.1512162438        7.2774954350       -4.6232578178    0   0   0
S            -1.5756025210        6.3677884239       -7.6014065489    0   0   0
S            -1.5756020673        6.3677895528      -10.7330757790    0   0   0
S            -3.1512127704        7.2774877076       -1.4877200710    0   0   0
Mo           -3.1510072505        7.2773460374        3.0558292267
Mo           -1.5897825116        6.3672858603        9.1752527726
S            -3.1486629434        7.2771719830        7.5937931463
S            -1.5750315933        6.3679644509        4.6240045342
S            -1.5754937205        6.3677245668        1.4880918409
S            -3.1672288703        7.2831482153       10.7355776534
Mo           -4.7268400355       10.0065304219       -9.1672481230    0   0   0
Mo           -3.1512405618        9.0968403586       -3.0554816746    0   0   0
S            -4.7268341792       10.0065523623       -4.6232463762    0   0   0
S            -3.1512198634        9.0968439439       -7.6014065489    0   0   0
S            -3.1512194097        9.0968450728      -10.7330757790    0   0   0
S            -4.7268370797       10.0065537885       -1.4877176751    0   0   0
Mo           -4.7268347320       10.0066069401        3.0556256450
Mo           -3.1525620714        9.0997187085        9.1624609945
S            -4.7265609572       10.0011558050        7.5866681800
S            -3.1511243995        9.0968081813        4.6230728665
S            -3.1510598966        9.0968395271        1.4880430538
S            -4.7273071292       10.0124047441       10.7284413675
Mo            3.1512517547        1.8193638619       -9.1672481230    0   0   0
Mo            4.7269020221        0.9097289540       -3.0554823951    0   0   0
S             3.1512612351        1.8193882564       -4.6232320683    0   0   0
S             4.7268719268        0.9096773839       -7.6014065489    0   0   0
S             4.7268723805        0.9096785128      -10.7330757790    0   0   0
S             3.1512592485        1.8193890201       -1.4877261251    0   0   0
Mo            3.1512722914        1.8195791744        3.0558011477
Mo            4.7332210644        0.9051862009        9.1489408867
S             3.1516419902        1.8218802053        7.5896817163
S             4.7268609211        0.9098940252        4.6235067021
S             4.7269083905        0.9096140473        1.4880505445
S             3.1569531605        1.8059313795       10.7209418608
[...]
S             6.3196252935        7.2812857855       10.7348835644
Mo            4.7268792535       10.0065304219       -9.1672481230    0   0   0
Mo            6.3025111524        9.0968738021       -3.0554915260    0   0   0
S             4.7268840634       10.0065452125       -4.6232380477    0   0   0
S             6.3024994256        9.0968439439       -7.6014065489    0   0   0
S             6.3024998793        9.0968450728      -10.7330757790    0   0   0
S             4.7268847312       10.0065459141       -1.4877283294    0   0   0
Mo            4.7266619485       10.0064273977        3.0558515419
Mo            6.3057102414        9.0964056486        9.1601041932
S             4.7258119870       10.0060493633        7.5924636187
S             6.3023867441        9.0968092431        4.6232017045
S             6.3024271626        9.0967975746        1.4880435950
S             4.7393881676       10.0182728104       10.7333027506
Pd            1.5777936307        6.3544066013       12.1059531707
Pd            3.1481436288        1.8109672277       12.8784801359
End final coordinates

     Writing all to output data dir ./outdir/pwscf.save/

     General routines

     Parallel routines

   This run was terminated on:   0: 9:12   6Oct2023

   JOB DONE.
Application 11268042 resources: utime ~3139474s, stime ~32163s, Rss ~3502356, inblocks ~0, outblocks ~53797488