     Program PWSCF v.7.3 starts on  9Mar2024 at 11: 3:49

     Waiting for input...
     Reading input from standard input
Warning: card &CELL ignored
Warning: card / ignored

     Current dimensions of program PWSCF are:
     Max number of different atomic species (ntypx) = 10
     Max number of k-points (npk) =  40000
     Max angular momentum in pseudopotentials (lmaxx) =  4
     file Mo.pbe-spn-kjpaw_psl.1.0.0.UPF: wavefunction(s)  4S 4D renormalized
     file S.pbe-n-kjpaw_psl.1.0.0.UPF: wavefunction(s)  3S 3P renormalized
     file Pt.pbe-spfn-kjpaw_psl.1.0.0.UPF: wavefunction(s)  5P 4F renormalized
     file Pd.pbe-spn-kjpaw_psl.1.0.0.UPF: wavefunction(s)  4S 5S 4D renormalized

     R & G space division:  proc/nbgrp/npool/nimage =      36
     Subspace diagonalization in iterative solution of the eigenvalue problem:
     one sub-group per band group will be used

     Using Slab Decomposition

     bravais-lattice index     =            0
     lattice parameter (alat)  =      23.8395  a.u.
     unit-cell volume          =   28182.8498 (a.u.)^3
     number of atoms/cell      =          146
     number of atomic types    =            4
     number of electrons       =      1298.00
     number of Kohn-Sham states=          779
     kinetic-energy cutoff     =      77.0000  Ry
     charge density cutoff     =     539.0000  Ry
     scf convergence threshold =      1.0E-06
     mixing beta               =       0.2000
     number of iterations used =            8  plain     mixing
     energy convergence thresh.=      1.0E-04
     force convergence thresh. =      1.0E-03
     Exchange-correlation= SLA  PW   PBX  PBC
                           (   1   4   3   4   0   0   0)
     nstep                     =         1000

     Effective Screening Medium Method
     Boundary Conditions: Vacuum-Slab-Vacuum
     total charge in unit cell        =   0.0000
     grid points for fit at edges     =        4

     celldm(1)=  23.839504  celldm(2)=   0.000000  celldm(3)=   0.000000
     celldm(4)=   0.000000  celldm(5)=   0.000000  celldm(6)=   0.000000

     crystal axes: (cart. coord. in units of alat)
               a(1) = (   1.000000   0.000000   0.000000 )
               a(2) = (  -0.500001   0.866026   0.000000 )
               a(3) = (   0.000000   0.000000   2.401941 )

     reciprocal axes: (cart. coord. in units 2 pi/alat)
               b(1) = (  1.000000  0.577351  0.000000 )
               b(2) = (  0.000000  1.154700  0.000000 )
               b(3) = (  0.000000  0.000000  0.416330 )

     PseudoPot. # 1 for Mo read from file:
     ./pseudo/Mo.pbe-spn-kjpaw_psl.1.0.0.UPF
     MD5 check sum: 317bf72632116215fd98f72de1686f13
     Pseudo is Projector augmented-wave + core cor, Zval = 14.0
     Generated using 'atomic' code by A. Dal Corso  v.7.2
     Shape of augmentation charge: PSQ
     Using radial grid of 1229 points,  6 beta functions with:
                l(1) =   0
                l(2) =   0
                l(3) =   1
                l(4) =   1
                l(5) =   2
                l(6) =   2
     Q(r) pseudized with 0 coefficients

     PseudoPot. # 2 for S  read from file:
     ./pseudo/S.pbe-n-kjpaw_psl.1.0.0.UPF
     MD5 check sum: 8b7b5302570d38d5e87fed6a1065abda
     Pseudo is Projector augmented-wave + core cor, Zval =  6.0
     Generated using 'atomic' code by A. Dal Corso  v.7.2
     Shape of augmentation charge: PSQ
     Using radial grid of 1151 points,  6 beta functions with:
                l(1) =   0
                l(2) =   0
                l(3) =   1
                l(4) =   1
                l(5) =   2
                l(6) =   2
     Q(r) pseudized with 0 coefficients

     PseudoPot. # 3 for Pt read from file:
     ./pseudo/Pt.pbe-spfn-kjpaw_psl.1.0.0.UPF
     MD5 check sum: 620096ebf4e6ebacc94de60fd67efcb5
     Pseudo is Projector augmented-wave + core cor, Zval = 32.0
     Generated using 'atomic' code by A. Dal Corso  v.7.2
     Shape of augmentation charge: PSQ
     Using radial grid of 1277 points,  8 beta functions with:
                l(1) =   0
                l(2) =   0
                l(3) =   1
                l(4) =   1
                l(5) =   2
                l(6) =   2
                l(7) =   3
                l(8) =   3
     Q(r) pseudized with 0 coefficients

     PseudoPot. # 4 for Pd read from file:
     ./pseudo/Pd.pbe-spn-kjpaw_psl.1.0.0.UPF
     MD5 check sum: a60571a671f2502b8a6a4569d20a6edb
     Pseudo is Projector augmented-wave + core cor, Zval = 18.0
     Generated using 'atomic' code by A. Dal Corso  v.7.2
     Shape of augmentation charge: PSQ
     Using radial grid of 1235 points,  6 beta functions with:
                l(1) =   0
                l(2) =   0
                l(3) =   1
                l(4) =   1
                l(5) =   2
                l(6) =   2
     Q(r) pseudized with 0 coefficients

     atomic species   valence    mass     pseudopotential
     Mo               14.00    95.95000     Mo( 1.00)
     S                 6.00    32.06000     S ( 1.00)
     Pt               32.00   195.08400     Pt( 1.00)
     Pd               18.00   106.42000     Pd( 1.00)

     No symmetry found

   Cartesian axes

     site n.     atom                  positions (alat units)
         1        Mo     tau(   1) = (   0.1245066   0.2151403   0.4829270  )
         2        Mo     tau(   2) = (   0.1250004   0.0721694  -0.4825273  )
         3        Mo     tau(   3) = (   0.0000143   0.1443586  -0.0000404  )
         4        S      tau(   4) = (   0.0000004   0.0000006  -0.6064556  )
         5        S      tau(   5) = (   0.1249859   0.0722111  -0.1241825  )
         6        S      tau(   6) = (   0.0002990   0.1445714   0.3572522  )
         7        S      tau(   7) = (   0.0000004   0.0000005  -0.3584711  )
         8        S      tau(   8) = (   0.1250243   0.0721377   0.1241202  )
         9        S      tau(   9) = (  -0.0011552   0.1430195   0.6061730  )
        10        Mo     tau(  10) = (  -0.0014303   0.4332690   0.4829269  )
        11        Mo     tau(  11) = (   0.0000001   0.2886759  -0.4825273  )
        12        Mo     tau(  12) = (  -0.1249759   0.3608474  -0.0000404  )
        13        S      tau(  13) = (  -0.1249999   0.2165071  -0.6064556  )
        14        S      tau(  14) = (   0.0000250   0.2886908  -0.1241273  )
        15        S      tau(  15) = (  -0.1246483   0.3609863   0.3572522  )
        16        S      tau(  16) = (  -0.1249998   0.2165070  -0.3584711  )
        17        S      tau(  17) = (   0.0000923   0.2887297   0.1242244  )
        18        S      tau(  18) = (  -0.1267194   0.3605027   0.6061730  )
        19        Mo     tau(  19) = (  -0.1251617   0.6496109   0.4820319  )
        20        Mo     tau(  20) = (  -0.1250002   0.5051824  -0.4825273  )
        21        Mo     tau(  21) = (  -0.2500022   0.5773395  -0.0001503  )
        22        S      tau(  22) = (  -0.2500002   0.4330136  -0.6064556  )
        23        S      tau(  23) = (  -0.1249718   0.5051500  -0.1241823  )
        24        S      tau(  24) = (  -0.2500018   0.5776353   0.3574746  )
        25        S      tau(  25) = (  -0.2500001   0.4330135  -0.3584711  )
        26        S      tau(  26) = (  -0.1250162   0.5052198   0.1241203  )
        27        S      tau(  27) = (  -0.2500018   0.5771316   0.6060170  )
        28        Mo     tau(  28) = (   0.2499988  -0.0001852   0.4820322  )
        29        Mo     tau(  29) = (  -0.2500004   0.7216889  -0.4825273  )
        30        Mo     tau(  30) = (  -0.3750121   0.7938628  -0.0001504  )
        31        S      tau(  31) = (  -0.3750004   0.6495201  -0.6064556  )
        32        S      tau(  32) = (  -0.2500022   0.7216884  -0.1242395  )
        33        S      tau(  33) = (  -0.3747547   0.7937137   0.3574746  )
        34        S      tau(  34) = (  -0.3750004   0.6495200  -0.3584711  )
        35        S      tau(  35) = (  -0.2500023   0.7216883   0.1240244  )
        36        S      tau(  36) = (  -0.3751912   0.7939655   0.6060169  )
        37        Mo     tau(  37) = (   0.3754907   0.2151405   0.4829271  )
        38        Mo     tau(  38) = (   0.3750004   0.0721694  -0.4825273  )
        39        Mo     tau(  39) = (   0.2499984   0.1443573  -0.0000731  )
        40        S      tau(  40) = (   0.2500004   0.0000006  -0.6064556  )
        41        S      tau(  41) = (   0.3750112   0.0722112  -0.1241824  )
        42        S      tau(  42) = (   0.2499987   0.1444686   0.3583292  )
        43        S      tau(  43) = (   0.2500004   0.0000005  -0.3584711  )
        44        S      tau(  44) = (   0.3749727   0.0721378   0.1241202  )
        45        S      tau(  45) = (   0.2499989   0.1436262   0.6067914  )
        46        Mo     tau(  46) = (   0.2499982   0.4330120   0.4873213  )
        47        Mo     tau(  47) = (   0.2500001   0.2886759  -0.4825273  )
        48        Mo     tau(  48) = (   0.1250313   0.3608632  -0.0000369  )
        49        S      tau(  49) = (   0.1250001   0.2165071  -0.6064556  )
        50        S      tau(  50) = (   0.2499984   0.2886902  -0.1241509  )
        51        S      tau(  51) = (   0.1269276   0.3619573   0.3622727  )
        52        S      tau(  52) = (   0.1250002   0.2165070  -0.3584711  )
        53        S      tau(  53) = (   0.2499983   0.2886817   0.1242427  )
        54        S      tau(  54) = (   0.1143670   0.3547054   0.6129634  )
        55        Mo     tau(  55) = (   0.1240620   0.6506275   0.4829270  )
        56        Mo     tau(  56) = (   0.1249998   0.5051824  -0.4825273  )
        57        Mo     tau(  57) = (   0.0000150   0.5773409  -0.0000731  )
        58        S      tau(  58) = (  -0.0000002   0.4330136  -0.6064556  )
        59        S      tau(  59) = (   0.1250108   0.5051746  -0.1241509  )
        60        S      tau(  60) = (   0.0001121   0.5772840   0.3583290  )
[...]
       132        S      tau( 132) = (   0.4998845   0.5772841   0.3583289  )
       133        S      tau( 133) = (   0.4999999   0.4330135  -0.3584711  )
       134        S      tau( 134) = (   0.6250119   0.5052197   0.1241202  )
       135        S      tau( 135) = (   0.5006138   0.5777054   0.6067911  )
       136        Mo     tau( 136) = (  -0.0000756   0.0000425   0.4811258  )
       137        Mo     tau( 137) = (   0.4999996   0.7216889  -0.4825273  )
       138        Mo     tau( 138) = (   0.3749875   0.7938333  -0.0000404  )
       139        S      tau( 139) = (   0.3749996   0.6495201  -0.6064556  )
       140        S      tau( 140) = (   0.4999549   0.7216781  -0.1241825  )
       141        S      tau( 141) = (   0.3749453   0.7934797   0.3572516  )
       142        S      tau( 142) = (   0.3749996   0.6495200  -0.3584711  )
       143        S      tau( 143) = (   0.5000375   0.7216816   0.1241203  )
       144        S      tau( 144) = (   0.3755618   0.7955149   0.6061729  )
       145        Pt     tau( 145) = (   0.2499972   0.4330095   0.7045710  )
       146        Pd     tau( 146) = (   0.3754958   0.2151352   0.7398146  )

     DFT-D3 Dispersion Correction (3-body terms):
       Reference C6 values for interpolation:

[...]
   -40.6129 -40.5863 -40.5862 -40.5839 -40.5801 -40.5762 -40.5745 -40.5714
   -40.5541 -40.5520 -40.5428 -40.5256 -40.5172 -40.5055 -40.4866 -20.0133
   -19.9163 -19.8999 -19.8114 -19.7424 -19.6908 -19.5029 -19.4833 -19.4553
   -19.3980 -19.3156 -19.2824 -19.0792 -18.8525 -18.7919 -18.7802 -18.7728
   -18.7719 -18.7686 -18.7529 -18.7155 -18.7010 -18.6655 -18.6508 -18.6358
   -18.6310 -18.6072 -18.5842 -18.5833 -18.5712 -18.5256 -18.5239 -18.4986
   -18.4880 -18.4624 -18.4433 -18.4310 -18.4267 -18.4075 -18.3412 -18.3368
   -18.3224 -18.2815 -18.2718 -18.2560 -18.2509 -18.2182 -18.2021 -18.1770
   -18.1596 -18.1595 -18.1593 -18.1593 -18.1561 -18.1379 -18.1374 -18.1039
   -18.1003 -18.0874 -18.0833 -18.0828 -18.0764 -18.0712 -18.0579 -18.0354
   -18.0282 -18.0216 -18.0151 -18.0084 -17.9986 -17.9787 -17.9743 -17.9716
   -17.9643 -17.9555 -17.9472 -17.9160 -17.9117 -17.9001 -17.8960 -17.8960
   -17.8917 -17.8514 -17.8454 -17.8364 -17.8362 -17.8295 -17.8209 -17.8196
   -17.8136 -17.7944 -17.7812 -17.7754 -17.7731 -17.7203 -17.7125 -12.0552
   -11.8407 -11.7149 -11.7051 -11.6604 -11.5316 -11.5091 -11.5056 -11.5032
   -11.5000 -11.4832 -11.4788 -11.4583 -11.4288 -11.4105 -11.4053 -11.4013
   -11.3774 -11.3718 -11.3457 -11.3417 -11.3164 -11.3154 -11.2889 -11.2889
   -11.2860 -11.2777 -11.2435 -11.2430 -11.2337 -11.1977 -11.1886 -11.1862
   -11.1829 -11.1613 -11.0779 -11.0631 -11.0356 -11.0179 -11.0037 -10.9927
   -10.9746 -10.9547 -10.9488 -10.9372 -10.9353 -10.9200 -10.9017 -10.8875
   -10.8745 -10.8650 -10.8630 -10.8618 -10.8615 -10.8557 -10.8523 -10.8425
   -10.8388 -10.8185 -10.8007 -10.7965 -10.7938 -10.7858 -10.7466 -10.6736
   -10.6104 -10.6058 -10.5546 -10.5254 -10.5179 -10.4605 -10.4133 -10.3657
   -10.3199 -10.2596 -10.1836 -10.1586 -10.1490 -10.1430 -10.1318 -10.0802
   -10.0573 -10.0473 -10.0428  -9.9878  -9.9836  -9.9707  -9.9686  -9.9665
    -9.9588  -9.9430  -9.9333  -9.9290  -9.9266  -9.9102  -9.8998  -9.8424
    -9.8295  -9.8092  -9.7955  -9.7902  -9.7861  -9.7642  -9.7573  -9.7451
    -9.7411  -9.7305  -9.7278  -9.7126  -9.6889  -9.6851  -9.6738  -9.6573
    -9.6474  -9.6423  -9.6352  -9.5915  -9.5830  -9.5679  -9.5612  -9.5559
    -9.5409  -9.5051  -9.5014  -9.4999  -9.4703  -9.4062  -9.3810  -9.3555
    -9.3404  -9.2978  -9.2431  -9.2358  -9.2157  -9.2032  -9.1873  -9.1766
    -9.1701  -9.1645  -9.1574  -9.1414  -9.1283  -9.1142  -9.0792  -9.0768
    -9.0637  -9.0590  -9.0532  -9.0361  -9.0203  -9.0185  -9.0077  -8.9944
    -8.9901  -8.9793  -8.9695  -8.9645  -8.9634  -8.9590  -8.9580  -8.9334
    -8.9247  -8.9028  -8.8912  -8.8904  -8.8877  -8.8850  -8.8731  -8.8714
    -8.8700  -8.8620  -8.8542  -8.8478  -8.8419  -8.8270  -8.8213  -8.8011
[...]
    -3.7866  -3.7510  -3.7079  -3.6557  -3.6345  -3.6287  -3.6260  -3.6237
    -3.6113  -3.6112  -3.6019  -3.5856  -3.5805  -3.5452  -3.5352  -3.5314
    -3.5279  -3.5113  -3.5085  -3.5038  -3.5006  -3.4938  -3.4910  -3.4546
    -3.4282  -3.4266  -3.4014  -3.3909  -3.3852  -3.3792  -3.3788  -3.3654
    -3.3505  -3.3450  -3.3399  -3.3366  -3.3262  -3.3088  -3.3028  -3.3023
    -3.3014  -3.2999  -3.2772  -3.2695  -3.2654  -3.2548  -3.2503  -3.2395
    -3.2350  -3.2297  -3.2221  -3.2162  -3.2094  -3.1937  -3.1601  -3.1551
    -3.1434  -3.1224  -3.1163  -3.0990  -3.0970  -3.0709  -3.0613  -3.0582
    -3.0546  -3.0396  -3.0392  -3.0388  -3.0384  -3.0065  -2.9978  -2.9907
    -2.9898  -2.9709  -2.9699  -2.9603  -2.9506  -2.9494  -2.9428  -2.9347
    -2.9293  -2.9253  -2.9132  -2.9024  -2.8972  -2.8832  -2.8730  -2.8644
    -2.8550  -2.8412  -2.8332  -2.8312  -2.8135  -2.7721  -2.7649  -2.7414
    -2.7374  -2.6876  -2.6828  -2.6758  -2.6732  -2.6628  -2.6555  -2.5957
    -2.5917  -2.5530  -2.5462  -2.5279  -2.5176  -2.5139  -2.5006  -2.4002
    -2.3974  -2.3585  -2.3388

     the Fermi energy is    -4.7005 ev

!    total energy              =  -26031.80885225 Ry
     total all-electron energy =   -512284.378480 Ry
     estimated scf accuracy    <          7.3E-09 Ry
     smearing contrib. (-TS)   =      -0.00000004 Ry
     internal energy E=F+TS    =  -26031.80885221 Ry

     The total energy is F=E-TS. E is the sum of the following terms:
     one-electron contribution =  491509.13284799 Ry
     hartree contribution      = -245898.29952990 Ry
     xc contribution           =   -1534.65404534 Ry
     ewald contribution        = -253915.22744267 Ry
     DFT-D3 Dispersion         =      -4.02111926 Ry
     one-center paw contrib.   =  -16188.73956302 Ry

     convergence has been achieved in  10 iterations

     negative rho (up, down):  9.258E-04 0.000E+00

     Forces acting on atoms (cartesian axes, Ry/au):

     atom    1 type  1   force =    -0.00003338    0.00023628   -0.00018644
     atom    2 type  1   force =    -0.00000009    0.00000332    0.00190000
     atom    3 type  1   force =     0.00001673    0.00000000    0.00002024
     atom    4 type  2   force =     0.00000134    0.00000237   -0.00327946
     atom    5 type  2   force =    -0.00000683    0.00000749    0.00000088
     atom    6 type  2   force =     0.00005716   -0.00005542   -0.00012529
     atom    7 type  2   force =    -0.00000098    0.00000203    0.00150419
     atom    8 type  2   force =     0.00004501    0.00002118   -0.00000166
     atom    9 type  2   force =     0.00012827   -0.00001943   -0.00039254
     atom   10 type  1   force =    -0.00002004    0.00028378    0.00010684
     atom   11 type  1   force =     0.00000050    0.00000294    0.00189986
     atom   12 type  1   force =     0.00001573    0.00001283   -0.00002818
     atom   13 type  2   force =     0.00000146    0.00000255   -0.00327959
     atom   14 type  2   force =    -0.00000363   -0.00003915   -0.00001074
     atom   15 type  2   force =     0.00027443    0.00026926    0.00008489
     atom   16 type  2   force =    -0.00000225    0.00000216    0.00150928
     atom   17 type  2   force =    -0.00000769    0.00001896   -0.00001555
     atom   18 type  2   force =    -0.00012409   -0.00020957    0.00006523
     atom   19 type  1   force =    -0.00008420   -0.00021317   -0.00018271
     atom   20 type  1   force =     0.00000047    0.00000137    0.00189992
     atom   21 type  1   force =     0.00000897   -0.00001107    0.00002417
     atom   22 type  2   force =     0.00000161    0.00000282   -0.00327967
     atom   23 type  2   force =     0.00000201    0.00001915    0.00002309
     atom   24 type  2   force =    -0.00020998   -0.00025052   -0.00006914
     atom   25 type  2   force =    -0.00000410    0.00000039    0.00150111
     atom   26 type  2   force =     0.00002622   -0.00001273    0.00003066
     atom   27 type  2   force =    -0.00018791    0.00022666    0.00003758
     atom   28 type  1   force =    -0.00007925    0.00017309   -0.00022453
     atom   29 type  1   force =    -0.00000012    0.00000104    0.00190180
     atom   30 type  1   force =     0.00003126    0.00000583    0.00000912
     atom   31 type  2   force =     0.00000141    0.00000271   -0.00327931
     atom   32 type  2   force =    -0.00000051   -0.00003577   -0.00000025
     atom   33 type  2   force =    -0.00008146    0.00023224    0.00023412
     atom   34 type  2   force =    -0.00000329   -0.00000464    0.00150519
     atom   35 type  2   force =     0.00001727   -0.00001668    0.00000784
     atom   36 type  2   force =     0.00019939    0.00016097   -0.00019327
     atom   37 type  1   force =     0.00009464   -0.00001744    0.00080463
     atom   38 type  1   force =     0.00000059    0.00000301    0.00189691
     atom   39 type  1   force =     0.00000641    0.00001241   -0.00002317
     atom   40 type  2   force =     0.00000048    0.00000211   -0.00327891
     atom   41 type  2   force =     0.00000367    0.00000505   -0.00001923
     atom   42 type  2   force =    -0.00063776   -0.00008671   -0.00030348
     atom   43 type  2   force =     0.00000378    0.00000948    0.00150044
     atom   44 type  2   force =     0.00000177    0.00002650   -0.00000181
     atom   45 type  2   force =    -0.00076850   -0.00038930    0.00026653
     atom   46 type  1   force =    -0.00004523   -0.00013731    0.00023631
     atom   47 type  1   force =     0.00000037    0.00000375    0.00189595
     atom   48 type  1   force =     0.00001002   -0.00001049   -0.00002149
     atom   49 type  2   force =     0.00000054    0.00000223   -0.00327916
     atom   50 type  2   force =    -0.00000515   -0.00000842   -0.00003453
     atom   51 type  2   force =    -0.00036778    0.00007585   -0.00030415
     atom   52 type  2   force =     0.00000688    0.00000939    0.00149535
     atom   53 type  2   force =     0.00001202   -0.00001037    0.00000200
     atom   54 type  2   force =    -0.00024418    0.00010059    0.00018038
     atom   55 type  1   force =    -0.00001158   -0.00013564   -0.00010738
     atom   56 type  1   force =     0.00000052    0.00000177    0.00189550
     atom   57 type  1   force =     0.00001115    0.00000174   -0.00001384
     atom   58 type  2   force =     0.00000072    0.00000218   -0.00327885
     atom   59 type  2   force =     0.00004157    0.00001673   -0.00000342
     atom   60 type  2   force =    -0.00004887    0.00011165   -0.00024585
[...]
     atom  132 type  2   force =    -0.00014547   -0.00053185    0.00037196
     atom  133 type  2   force =    -0.00000755   -0.00000451    0.00150505
     atom  134 type  2   force =    -0.00001361    0.00000074   -0.00000088
     atom  135 type  2   force =    -0.00007598   -0.00008961    0.00017119
     atom  136 type  1   force =    -0.00005933    0.00001571   -0.00001710
     atom  137 type  1   force =    -0.00000030    0.00000156    0.00190281
     atom  138 type  1   force =     0.00000429    0.00001411   -0.00001108
     atom  139 type  2   force =     0.00000147    0.00000278   -0.00327983
     atom  140 type  2   force =     0.00002874   -0.00001955    0.00003039
     atom  141 type  2   force =     0.00005950    0.00001297    0.00009601
     atom  142 type  2   force =    -0.00000888   -0.00000455    0.00150432
     atom  143 type  2   force =    -0.00000736    0.00002320   -0.00001130
     atom  144 type  2   force =     0.00000980    0.00026293    0.00009232
     atom  145 type  3   force =    -0.00085089   -0.00099249   -0.00059775
     atom  146 type  4   force =     0.00091722   -0.00063343   -0.00052308

     Total force =     0.003875     Total SCF correction =     0.000565
     SCF correction compared to forces is large: reduce conv_thr to get better values
     Energy error            =      2.5E-05 Ry
     Gradient error          =      9.9E-04 Ry/Bohr

     bfgs converged in  27 scf cycles and  26 bfgs steps
     (criteria: energy <  1.0E-04 Ry, force <  1.0E-03 Ry/Bohr)

     End of BFGS Geometry Optimization

     Final energy             =  -26031.8088522538 Ry

     File ./outdir/pwscf.bfgs deleted, as requested
Begin final coordinates

ATOMIC_POSITIONS (angstrom)
Mo               1.5557553942        2.7129194913        6.0940061704
Mo               1.5769197498        0.9104407117       -6.0872367793    0   0   0
Mo               0.0000147437        1.8208860631       -0.0006257218
S                0.0000044503        0.0000077495       -7.6506323570    0   0   0
S                1.5768066352        0.9109365546       -1.5665289164
S               -0.0015159058        1.8197055148        4.5039208911
S                0.0000053241        0.0000068460       -4.5222282367    0   0   0
S                1.5774154768        0.9105884362        1.5661869820
S               -0.0271222623        1.8005204248        7.6485950335
Mo              -0.0164222355        5.4647352069        6.0846418733
Mo               0.0000011799        3.6417399547       -6.0872367793    0   0   0
Mo              -1.5765879793        4.5518628893       -0.0010015235
S               -1.5769141197        2.7313069925       -7.6506323570    0   0   0
S                0.0002800135        3.6416021179       -1.5662604412
S               -1.5679543437        4.5473199425        4.4989222357
S               -1.5769132459        2.7313060890       -4.5222282367    0   0   0
S                0.0011051102        3.6420543989        1.5665077413
S               -1.5934913262        4.5490370271        7.6417768237
Mo              -1.5737662133        8.1939852648        6.0785973332
Mo              -1.5769173901        6.3730391977       -6.0872367793    0   0   0
Mo              -3.1539354782        7.2833419899       -0.0016849688
S               -3.1538326896        5.4626062355       -7.6506323570    0   0   0
S               -1.5768945135        6.3725790814       -1.5668399839
S               -3.1421203582        7.2885836540        4.4986250952
S               -3.1538318159        5.4626053320       -4.5222282367    0   0   0
S               -1.5768558130        6.3731401949        1.5653303275
S               -3.1533210852        7.2795474027        7.6325940333
Mo               3.1486555976       -0.0158566082        6.0820204723
Mo              -3.1538359601        9.1043384407       -6.0872367793    0   0   0
Mo              -4.7309568189       10.0150400135       -0.0017183914
S               -4.7307512596        8.1939054785       -7.6506323570    0   0   0
S               -3.1539944962        9.1044293201       -1.5671359816
S               -4.7268941794       10.0186993998        4.4986784439
S               -4.7307503859        8.1939045750       -4.5222282367    0   0   0
S               -3.1538863075        9.1044762972        1.5648561001
S               -4.7393540705       10.0024249069        7.6415852361
Mo               4.7400584551        2.7140595932        6.1234409235
Mo               4.7307503218        0.9104407117       -6.0872367793    0   0   0
Mo               3.1538925451        1.8210987250       -0.0007786964
S                3.1538350223        0.0000077495       -7.6506323570    0   0   0
S                4.7310579768        0.9109227133       -1.5661040983
S                3.1635857026        1.8260617230        4.5483917854
S                3.1538358961        0.0000068460       -4.5222282367    0   0   0
S                4.7299491086        0.9099104789        1.5668331612
S                3.0823239081        1.7692046998        7.6839239194
Mo               3.1510713756        5.4748614046        6.1318361419
Mo               3.1538317519        3.6417399547       -6.0872367793    0   0   0
Mo               1.5772905613        4.5521220575       -0.0007700863
S                1.5769164523        2.7313069925       -7.6506323570    0   0   0
S                3.1543338313        3.6419630853       -1.5659710111
S                1.5964863652        4.5593461718        4.5608083449
S                1.5769173261        2.7313060890       -4.5222282367    0   0   0
S                3.1534070006        3.6414806402        1.5675309798
S                1.4641898690        4.4931313408        7.7117109590
Mo               1.5713848815        8.2046990254        6.0973667676
Mo               1.5769131819        6.3730391977       -6.0872367793    0   0   0
Mo               0.0000714580        7.2832371100       -0.0012367449
S               -0.0000021176        5.4626062355       -7.6506323570    0   0   0
S                1.5771547847        6.3728639320       -1.5662590335
S                0.0078312954        7.2855292186        4.5176906852
[...]
S                6.3084778798        7.2995134951        4.4938600701
S                6.3076599001        5.4626053320       -4.5222282367    0   0   0
S                7.8850950728        6.3733798246        1.5665047216
S                6.3288867345        7.2973074758        7.6362984182
Mo              -0.0026709206       -0.0033752681        6.0679608868
Mo               6.3076557559        9.1043384407       -6.0872367793    0   0   0
Mo               4.7301999665       10.0144451885       -0.0002791443
S                4.7307404564        8.1939054785       -7.6506323570    0   0   0
S                6.3068037148        9.1040071458       -1.5662297545
S                4.7238613973       10.0104594926        4.5079462899
S                4.7307413301        8.1939045750       -4.5222282367    0   0   0
S                6.3079733703        9.1049397001        1.5655532550
S                4.7388285731       10.0244092649        7.6479010548
Pt               3.1941759940        5.3738092250        8.9494123326
Pd               4.6224336778        2.8357851045        9.1001029398
End final coordinates

     Writing all to output data dir ./outdir/pwscf.save/ :
     XML data file, charge density, pseudopotentials, collected wavefunctions

     General routines

     Parallel routines

   This run was terminated on:  19: 6: 5  10Mar2024

   JOB DONE.