     Program PWSCF v.7.2 starts on  9Dec2023 at 12:35:20

     Waiting for input...
     Reading input from standard input
Warning: card &CELL ignored
Warning: card / ignored

     Current dimensions of program PWSCF are:
     Max number of different atomic species (ntypx) = 10
     Max number of k-points (npk) =  40000
     Max angular momentum in pseudopotentials (lmaxx) =  4
     file Mo.pbe-spn-kjpaw_psl.1.0.0.UPF: wavefunction(s)  4S 4D renormalized
     file S.pbe-n-kjpaw_psl.1.0.0.UPF: wavefunction(s)  3S 3P renormalized
     file Pd.pbe-spn-kjpaw_psl.1.0.0.UPF: wavefunction(s)  4S 5S 4D renormalized

     R & G space division:  proc/nbgrp/npool/nimage =      36
     Subspace diagonalization in iterative solution of the eigenvalue problem:
     one sub-group per band group will be used

     Using Slab Decomposition

     bravais-lattice index     =            0
     lattice parameter (alat)  =      23.8395  a.u.
     unit-cell volume          =   28182.8498 (a.u.)^3
     number of atoms/cell      =          148
     number of atomic types    =            3
     number of electrons       =      1320.00
     number of Kohn-Sham states=          792
     kinetic-energy cutoff     =      77.0000  Ry
     charge density cutoff     =     539.0000  Ry
     scf convergence threshold =      1.0E-06
     mixing beta               =       0.2000
     number of iterations used =            8  plain     mixing
     energy convergence thresh.=      1.0E-04
     force convergence thresh. =      1.0E-03
     Exchange-correlation= SLA  PW   PBX  PBC
                           (   1   4   3   4   0   0   0)
     nstep                     =         1000

     Effective Screening Medium Method
     Boundary Conditions: Vacuum-Slab-Vacuum
     total charge in unit cell        =   0.0000
     grid points for fit at edges     =        4

     celldm(1)=  23.839504  celldm(2)=   0.000000  celldm(3)=   0.000000
     celldm(4)=   0.000000  celldm(5)=   0.000000  celldm(6)=   0.000000

     crystal axes: (cart. coord. in units of alat)
               a(1) = (   1.000000   0.000000   0.000000 )
               a(2) = (  -0.500001   0.866026   0.000000 )
               a(3) = (   0.000000   0.000000   2.401941 )

     reciprocal axes: (cart. coord. in units 2 pi/alat)
               b(1) = (  1.000000  0.577351  0.000000 )
               b(2) = (  0.000000  1.154700  0.000000 )
               b(3) = (  0.000000  0.000000  0.416330 )

     PseudoPot. # 1 for Mo read from file:
     ./pseudo/Mo.pbe-spn-kjpaw_psl.1.0.0.UPF
     MD5 check sum: 317bf72632116215fd98f72de1686f13
     Pseudo is Projector augmented-wave + core cor, Zval = 14.0
     Generated using 'atomic' code by A. Dal Corso  v.7.2
     Shape of augmentation charge: PSQ
     Using radial grid of 1229 points,  6 beta functions with:
                l(1) =   0
                l(2) =   0
                l(3) =   1
                l(4) =   1
                l(5) =   2
                l(6) =   2
     Q(r) pseudized with 0 coefficients

     PseudoPot. # 2 for S  read from file:
     ./pseudo/S.pbe-n-kjpaw_psl.1.0.0.UPF
     MD5 check sum: 8b7b5302570d38d5e87fed6a1065abda
     Pseudo is Projector augmented-wave + core cor, Zval =  6.0
     Generated using 'atomic' code by A. Dal Corso  v.7.2
     Shape of augmentation charge: PSQ
     Using radial grid of 1151 points,  6 beta functions with:
                l(1) =   0
                l(2) =   0
                l(3) =   1
                l(4) =   1
                l(5) =   2
                l(6) =   2
     Q(r) pseudized with 0 coefficients

     PseudoPot. # 3 for Pd read from file:
     ./pseudo/Pd.pbe-spn-kjpaw_psl.1.0.0.UPF
     MD5 check sum: a60571a671f2502b8a6a4569d20a6edb
     Pseudo is Projector augmented-wave + core cor, Zval = 18.0
     Generated using 'atomic' code by A. Dal Corso  v.7.2
     Shape of augmentation charge: PSQ
     Using radial grid of 1235 points,  6 beta functions with:
                l(1) =   0
                l(2) =   0
                l(3) =   1
                l(4) =   1
                l(5) =   2
                l(6) =   2
     Q(r) pseudized with 0 coefficients

     atomic species   valence    mass     pseudopotential
        Mo            14.00    95.95000     Mo( 1.00)
        S              6.00    32.06000     S ( 1.00)
        Pd            18.00   106.42000     Pd( 1.00)

     No symmetry found

   Cartesian axes

     site n.     atom                  positions (alat units)
         1           Mo  tau(   1) = (   0.1249457   0.2134123   0.4819544  )
         2           Mo  tau(   2) = (   0.1250004   0.0721694  -0.4825273  )
         3           Mo  tau(   3) = (   0.0000033   0.1443330  -0.0001251  )
         4           S   tau(   4) = (   0.0000004   0.0000006  -0.6064556  )
         5           S   tau(   5) = (   0.1249914   0.0721855  -0.1242347  )
         6           S   tau(   6) = (  -0.0004758   0.1436738   0.3584209  )
         7           S   tau(   7) = (   0.0000004   0.0000005  -0.3584711  )
         8           S   tau(   8) = (   0.1249894   0.0721188   0.1240993  )
         9           S   tau(   9) = (  -0.0038222   0.1412314   0.6089205  )
        10           Mo  tau(  10) = (  -0.0025417   0.4343465   0.4820674  )
        11           Mo  tau(  11) = (   0.0000001   0.2886759  -0.4825273  )
        12           Mo  tau(  12) = (  -0.1249939   0.3608224  -0.0001227  )
        13           S   tau(  13) = (  -0.1249999   0.2165071  -0.6064556  )
        14           S   tau(  14) = (   0.0000252   0.2886771  -0.1241869  )
        15           S   tau(  15) = (  -0.1258144   0.3607062   0.3584395  )
        16           S   tau(  16) = (  -0.1249998   0.2165070  -0.3584711  )
        17           S   tau(  17) = (  -0.0000184   0.2886537   0.1241791  )
        18           S   tau(  18) = (  -0.1297187   0.3589169   0.6088290  )
        19           Mo  tau(  19) = (  -0.1254732   0.6503373   0.4817788  )
        20           Mo  tau(  20) = (  -0.1250002   0.5051824  -0.4825273  )
        21           Mo  tau(  21) = (  -0.2500004   0.5773216  -0.0001903  )
        22           S   tau(  22) = (  -0.2500002   0.4330136  -0.6064556  )
        23           S   tau(  23) = (  -0.1249698   0.5051430  -0.1242236  )
        24           S   tau(  24) = (  -0.2502762   0.5773192   0.3574700  )
        25           S   tau(  25) = (  -0.2500001   0.4330135  -0.3584711  )
        26           S   tau(  26) = (  -0.1250257   0.5051685   0.1241113  )
        27           S   tau(  27) = (  -0.2502311   0.5772924   0.6059387  )
        28           Mo  tau(  28) = (   0.2505411  -0.0008123   0.4817679  )
        29           Mo  tau(  29) = (  -0.2500004   0.7216889  -0.4825273  )
        30           Mo  tau(  30) = (  -0.3750089   0.7938393  -0.0001982  )
        31           S   tau(  31) = (  -0.3750004   0.6495201  -0.6064556  )
        32           S   tau(  32) = (  -0.2500112   0.7216608  -0.1242943  )
        33           S   tau(  33) = (  -0.3750564   0.7934661   0.3574332  )
        34           S   tau(  34) = (  -0.3750004   0.6495200  -0.3584711  )
        35           S   tau(  35) = (  -0.2500136   0.7216627   0.1240030  )
        36           S   tau(  36) = (  -0.3750619   0.7935895   0.6058394  )
        37           Mo  tau(  37) = (   0.3759002   0.2158309   0.4824179  )
        38           Mo  tau(  38) = (   0.3750004   0.0721694  -0.4825273  )
        39           Mo  tau(  39) = (   0.2499772   0.1443335  -0.0001238  )
        40           S   tau(  40) = (   0.2500004   0.0000006  -0.6064556  )
        41           S   tau(  41) = (   0.3749431   0.0721751  -0.1242724  )
        42           S   tau(  42) = (   0.2503611   0.1436581   0.3584182  )
        43           S   tau(  43) = (   0.2500004   0.0000005  -0.3584711  )
        44           S   tau(  44) = (   0.3749976   0.0721392   0.1240210  )
        45           S   tau(  45) = (   0.2537192   0.1412308   0.6089164  )
        46           Mo  tau(  46) = (   0.2524299   0.4343451   0.4820748  )
        47           Mo  tau(  47) = (   0.2500001   0.2886759  -0.4825273  )
        48           Mo  tau(  48) = (   0.1249900   0.3608263  -0.0000541  )
        49           S   tau(  49) = (   0.1250001   0.2165071  -0.6064556  )
        50           S   tau(  50) = (   0.2499552   0.2886772  -0.1241874  )
        51           S   tau(  51) = (   0.1249475   0.3607318   0.3607067  )
        52           S   tau(  52) = (   0.1250002   0.2165070  -0.3584711  )
        53           S   tau(  53) = (   0.2499975   0.2886546   0.1241799  )
        54           S   tau(  54) = (   0.1249386   0.3605111   0.6013385  )
        55           Mo  tau(  55) = (   0.1249421   0.6507104   0.4824835  )
        56           Mo  tau(  56) = (   0.1249998   0.5051824  -0.4825273  )
        57           Mo  tau(  57) = (   0.0000005   0.5773147  -0.0001121  )
        58           S   tau(  58) = (  -0.0000002   0.4330136  -0.6064556  )
        59           S   tau(  59) = (   0.1249898   0.5051260  -0.1241753  )
        60           S   tau(  60) = (  -0.0003332   0.5780034   0.3585012  )
[...]
       134           S   tau( 134) = (   0.6249901   0.5051550   0.1240047  )
       135           S   tau( 135) = (   0.5001043   0.5772926   0.6059306  )
       136           Mo  tau( 136) = (  -0.0006525  -0.0008050   0.4817630  )
       137           Mo  tau( 137) = (   0.4999996   0.7216889  -0.4825273  )
       138           Mo  tau( 138) = (   0.3749967   0.7938386  -0.0002128  )
       139           S   tau( 139) = (   0.3749996   0.6495201  -0.6064556  )
       140           S   tau( 140) = (   0.4999943   0.7216620  -0.1242941  )
       141           S   tau( 141) = (   0.3748966   0.7937974   0.3571229  )
       142           S   tau( 142) = (   0.3749996   0.6495200  -0.3584711  )
       143           S   tau( 143) = (   0.4999943   0.7216644   0.1240023  )
       144           S   tau( 144) = (   0.3747530   0.7939575   0.6065211  )
       145           Pd  tau( 145) = (   0.2402863   0.4278218   0.7224594  )
       146           Pd  tau( 146) = (   0.0095608   0.4278243   0.7224518  )
       147           Pd  tau( 147) = (   0.1249502   0.2282625   0.7234614  )
       148           Pd  tau( 148) = (   0.1249274   0.3605140   0.8417013  )

     DFT-D3 Dispersion Correction (3-body terms):
       Reference C6 values for interpolation:

         atom   Coordination number   C6
         S          0.000           268.01
         S          0.995           261.99
         S          1.990           251.62
         Mo         0.000          1691.79
         Mo         1.942          1004.01
         Mo        11.056           674.22
         Pd         0.000          1217.01
         Pd         1.863           573.90
         Pd         5.710           531.75

       Values used:

         atom   Coordination number  R0_AB[au]  C6      C8
         Mo        10.611            3.547    674.22  77634.20
         Mo        10.189            3.547    674.22  77634.20
         Mo        10.202            3.547    674.22  77634.20
         S          3.753            3.128    251.62  12327.25
[...]
     atom   13 type  2   force =     0.00000000    0.00000000    0.00000000
     atom   14 type  2   force =     0.00000755    0.00000283    0.00000708
     atom   15 type  2   force =     0.00000971   -0.00000388    0.00000252
     atom   16 type  2   force =     0.00000000    0.00000000    0.00000000
     atom   17 type  2   force =     0.00000954    0.00000359   -0.00000793
     atom   18 type  2   force =     0.00001651    0.00000163    0.00001364
     atom   19 type  1   force =     0.00001607   -0.00003314    0.00005018
     atom   20 type  1   force =     0.00000000    0.00000000    0.00000000
     atom   21 type  1   force =     0.00000894   -0.00000310   -0.00001377
     atom   22 type  2   force =     0.00000000    0.00000000    0.00000000
     atom   23 type  2   force =     0.00000763   -0.00000481   -0.00000116
     atom   24 type  2   force =     0.00001220   -0.00000654    0.00000196
     atom   25 type  2   force =     0.00000000    0.00000000    0.00000000
     atom   26 type  2   force =     0.00000762   -0.00000483    0.00000105
     atom   27 type  2   force =     0.00000694   -0.00000345    0.00001994
     atom   28 type  1   force =    -0.00002389    0.00003755    0.00004831
     atom   29 type  1   force =     0.00000000    0.00000000    0.00000000
     atom   30 type  1   force =    -0.00000068    0.00001501   -0.00001236
     atom   31 type  2   force =     0.00000000    0.00000000    0.00000000
     atom   32 type  2   force =     0.00000001    0.00000177   -0.00000621
     atom   33 type  2   force =    -0.00000008    0.00001591    0.00000316
     atom   34 type  2   force =     0.00000000    0.00000000    0.00000000
     atom   35 type  2   force =     0.00000477    0.00000506    0.00000192
     atom   36 type  2   force =    -0.00000019    0.00000816    0.00001670
     atom   37 type  1   force =    -0.00004728    0.00002179    0.00004640
     atom   38 type  1   force =     0.00000000    0.00000000    0.00000000
     atom   39 type  1   force =    -0.00001891    0.00002390   -0.00001790
     atom   40 type  2   force =     0.00000000    0.00000000    0.00000000
     atom   41 type  2   force =    -0.00000971    0.00000295   -0.00000577
     atom   42 type  2   force =    -0.00000381    0.00000871    0.00000453
     atom   43 type  2   force =     0.00000000    0.00000000    0.00000000
     atom   44 type  2   force =    -0.00000201    0.00000431   -0.00000226
     atom   45 type  2   force =    -0.00001063    0.00001207    0.00000997
     atom   46 type  1   force =    -0.00000615   -0.00000878    0.00009934
     atom   47 type  1   force =     0.00000000    0.00000000    0.00000000
     atom   48 type  1   force =    -0.00000013   -0.00000526   -0.00000640
     atom   49 type  2   force =     0.00000000    0.00000000    0.00000000
     atom   50 type  2   force =    -0.00000774    0.00000298    0.00000682
     atom   51 type  2   force =    -0.00000012   -0.00000298    0.00001537
     atom   52 type  2   force =     0.00000000    0.00000000    0.00000000
     atom   53 type  2   force =    -0.00000979    0.00000377   -0.00000800
     atom   54 type  2   force =    -0.00000043   -0.00000138    0.00000624
     atom   55 type  1   force =    -0.00000037   -0.00004788    0.00004457
     atom   56 type  1   force =     0.00000000    0.00000000    0.00000000
     atom   57 type  1   force =     0.00001354   -0.00002744   -0.00001908
     atom   58 type  2   force =     0.00000000    0.00000000    0.00000000
     atom   59 type  2   force =     0.00000004   -0.00000884    0.00000571
     atom   60 type  2   force =     0.00000671   -0.00000652    0.00000083
[...]
     atom  134 type  2   force =    -0.00000015   -0.00000626    0.00000278
     atom  135 type  2   force =    -0.00000659   -0.00000296    0.00001995
     atom  136 type  1   force =     0.00002253    0.00003729    0.00004911
     atom  137 type  1   force =     0.00000000    0.00000000    0.00000000
     atom  138 type  1   force =    -0.00000381    0.00000710   -0.00000653
     atom  139 type  2   force =     0.00000000    0.00000000    0.00000000
     atom  140 type  2   force =    -0.00000045    0.00000174   -0.00000592
     atom  141 type  2   force =     0.00000132    0.00000141   -0.00000413
     atom  142 type  2   force =     0.00000000    0.00000000    0.00000000
     atom  143 type  2   force =    -0.00000538    0.00000517    0.00000156
     atom  144 type  2   force =     0.00000393   -0.00000022    0.00002336
     atom  145 type  3   force =     0.00000658    0.00000394   -0.00007501
     atom  146 type  3   force =    -0.00000795    0.00000301   -0.00007378
     atom  147 type  3   force =    -0.00000147    0.00000019   -0.00008131
     atom  148 type  3   force =    -0.00000102    0.00000086    0.00003675

     DFT-D3 dispersion contribution to forces:
     atom    1 type  1   force =    -0.00000002    0.00068399   -0.00138421
     atom    2 type  1   force =     0.00000000   -0.00000008    0.00260786
     atom    3 type  1   force =    -0.00001233   -0.00002080   -0.00003395
     atom    4 type  2   force =    -0.00000004    0.00000001    0.00440924
     atom    5 type  2   force =     0.00000002   -0.00000246   -0.00005090
     atom    6 type  2   force =     0.00006937    0.00010141    0.00026884
     atom    7 type  2   force =     0.00000042   -0.00000027    0.00023999
     atom    8 type  2   force =    -0.00000004   -0.00004615    0.00010518
     atom    9 type  2   force =     0.00050003    0.00111414   -0.00373421
     atom   10 type  1   force =     0.00059227   -0.00034159   -0.00138375
     atom   11 type  1   force =     0.00000013    0.00000008    0.00260763
     atom   12 type  1   force =    -0.00002417   -0.00000019   -0.00003387
     atom   13 type  2   force =     0.00000005    0.00000002    0.00440885
     atom   14 type  2   force =    -0.00000063   -0.00000033   -0.00005716
     atom   15 type  2   force =     0.00012265    0.00000988    0.00026909
     atom   16 type  2   force =     0.00000037    0.00000020    0.00024005
     atom   17 type  2   force =    -0.00002451   -0.00001407    0.00009328
     atom   18 type  2   force =     0.00121504   -0.00012314   -0.00373371
     atom   19 type  1   force =     0.00029649   -0.00037468   -0.00205653
     atom   20 type  1   force =    -0.00000007    0.00000005    0.00260786
     atom   21 type  1   force =    -0.00000858    0.00000500    0.00000518
     atom   22 type  2   force =    -0.00000002   -0.00000003    0.00440924
     atom   23 type  2   force =    -0.00000214    0.00000127   -0.00005087
     atom   24 type  2   force =     0.00000954   -0.00000532   -0.00011784
     atom   25 type  2   force =    -0.00000001    0.00000046    0.00024000
     atom   26 type  2   force =    -0.00003987    0.00002298    0.00010518
     atom   27 type  2   force =     0.00051944   -0.00030009   -0.00412356
     atom   28 type  1   force =    -0.00017601    0.00044375   -0.00205687
     atom   29 type  1   force =    -0.00000013   -0.00000007    0.00260808
     atom   30 type  1   force =     0.00000001   -0.00000999    0.00000510
     atom   31 type  2   force =     0.00000000    0.00000000    0.00440957
     atom   32 type  2   force =    -0.00000179   -0.00000102   -0.00004576
     atom   33 type  2   force =     0.00000004    0.00001089   -0.00011805
     atom   34 type  2   force =    -0.00000001   -0.00000003    0.00024019
     atom   35 type  2   force =    -0.00000890   -0.00000532    0.00012119
     atom   36 type  2   force =    -0.00000001    0.00059988   -0.00412376
     atom   37 type  1   force =    -0.00067169    0.00038804   -0.00166683
     atom   38 type  1   force =    -0.00000023   -0.00000002    0.00260755
     atom   39 type  1   force =     0.00001237   -0.00002079   -0.00003394
     atom   40 type  2   force =     0.00000003   -0.00000001    0.00440924
     atom   41 type  2   force =    -0.00000115   -0.00000097   -0.00004807
     atom   42 type  2   force =    -0.00006931    0.00010140    0.00026883
     atom   43 type  2   force =    -0.00000044   -0.00000027    0.00023999
     atom   44 type  2   force =     0.00000943   -0.00001952    0.00011921
     atom   45 type  2   force =    -0.00050005    0.00111411   -0.00373425
     atom   46 type  1   force =    -0.00059228   -0.00034158   -0.00138377
     atom   47 type  1   force =    -0.00000012    0.00000008    0.00260764
     atom   48 type  1   force =     0.00000001    0.00000008   -0.00007625
     atom   49 type  2   force =    -0.00000000    0.00000008    0.00440839
     atom   50 type  2   force =     0.00000067   -0.00000033   -0.00005715
     atom   51 type  2   force =     0.00000005    0.00000030    0.00081029
     atom   52 type  2   force =    -0.00000001   -0.00000004    0.00024022
     atom   53 type  2   force =     0.00002443   -0.00001407    0.00009326
     atom   54 type  2   force =    -0.00000003    0.00000013   -0.00361468
     atom   55 type  1   force =    -0.00000000   -0.00077560   -0.00166620
     atom   56 type  1   force =     0.00000000   -0.00000014    0.00260764
     atom   57 type  1   force =    -0.00001180    0.00002112   -0.00003373
     atom   58 type  2   force =     0.00000007   -0.00000004    0.00440839
     atom   59 type  2   force =     0.00000002    0.00000078   -0.00005711
     atom   60 type  2   force =     0.00005313   -0.00011081    0.00026916
[...]
     atom  134 type  2   force =    -0.00000006    0.00001021    0.00012122
     atom  135 type  2   force =    -0.00051944   -0.00030008   -0.00412358
     atom  136 type  1   force =     0.00017602    0.00044376   -0.00205687
     atom  137 type  1   force =     0.00000013   -0.00000007    0.00260808
     atom  138 type  1   force =    -0.00000102    0.00000051    0.00000528
     atom  139 type  2   force =    -0.00000002    0.00000003    0.00440924
     atom  140 type  2   force =     0.00000182   -0.00000102   -0.00004577
     atom  141 type  2   force =     0.00000503   -0.00000318   -0.00011494
     atom  142 type  2   force =     0.00000041   -0.00000028    0.00023999
     atom  143 type  2   force =     0.00000880   -0.00000533    0.00012120
     atom  144 type  2   force =     0.00006367   -0.00003716   -0.00420410
     atom  145 type  3   force =    -0.00030734   -0.00017719   -0.00619181
     atom  146 type  3   force =     0.00030734   -0.00017720   -0.00619180
     atom  147 type  3   force =    -0.00000002    0.00035454   -0.00619187
     atom  148 type  3   force =     0.00000001   -0.00000019   -0.00504144

     Total force =     0.001765     Total SCF correction =     0.000346
     SCF correction compared to forces is large: reduce conv_thr to get better values
     Energy error            =      9.6E-06 Ry
     Gradient error          =      5.4E-04 Ry/Bohr

     bfgs converged in  16 scf cycles and  15 bfgs steps
     (criteria: energy <  1.0E-04 Ry, force <  1.0E-03 Ry/Bohr)

     End of BFGS Geometry Optimization

     Final energy             =  -25893.0721790830 Ry

     File ./outdir/pwscf.bfgs deleted, as requested
Begin final coordinates

ATOMIC_POSITIONS (angstrom)
Mo            1.5762298747        2.6818409683        6.1146000224
Mo            1.5769197498        0.9104407117       -6.0872367793    0   0   0
Mo            0.0002336726        1.8209354385       -0.0024311840
S             0.0000044503        0.0000077495       -7.6506323570    0   0   0
S             1.5767779061        0.9107698432       -1.5683591102
S             0.0049888177        1.8230515909        4.5248199389
S             0.0000053241        0.0000068460       -4.5222282367    0   0   0
S             1.5767709938        0.9097072539        1.5643836510
S            -0.0783164052        1.7558986932        7.6825268393
Mo           -0.0429085145        5.4860634549        6.1144056958
Mo            0.0000011799        3.6417399547       -6.0872367793    0   0   0
Mo           -1.5765383894        4.5519863871       -0.0024313656
S            -1.5769141197        2.7313069925       -7.6506323570    0   0   0
S             0.0002023631        3.6416231297       -1.5677063751
S            -1.5721904155        4.5543426764        4.5247339171
S            -1.5769132459        2.7313060890       -4.5222282367    0   0   0
S             0.0004468898        3.6417536889        1.5657503503
S            -1.6721175747        4.5157472958        7.6824154255
Mo           -1.5837881543        8.2069493593        6.0617218444
Mo           -1.5769173901        6.3730391977       -6.0872367793    0   0   0
Mo           -3.1538157412        7.2830502019       -0.0038420512
S            -3.1538326896        5.4626062355       -7.6506323570    0   0   0
S            -1.5764989355        6.3724036748       -1.5683578101
S            -3.1549997912        7.2826315439        4.4919720899
S            -3.1538318159        5.4626053320       -4.5222282367    0   0   0
S            -1.5774085027        6.3729111740        1.5643796922
S            -3.1597733032        7.2855409017        7.6272405628
Mo            3.1620957440       -0.0132632473        6.0619200730
Mo           -3.1538359601        9.1043384407       -6.0872367793    0   0   0
Mo           -4.7308993716       10.0146374531       -0.0038435369
S            -4.7307512596        8.1939054785       -7.6506323570    0   0   0
S            -3.1536030689        9.1042366362       -1.5689436593
S            -4.7314326665       10.0131381226        4.4920416675
S            -4.7307503859        8.1939045750       -4.5222282367    0   0   0
S            -3.1543925985        9.1037716551        1.5628802295
S            -4.7314356706       10.0074396051        7.6272844000
Mo            4.7469639265        2.7204735429        6.0793820935
Mo            4.7307503218        0.9104407117       -6.0872367793    0   0   0
Mo            3.1533156506        1.8209344145       -0.0024364344
S             3.1538350223        0.0000077495       -7.6506323570    0   0   0
S             4.7302947145        0.9104270060       -1.5679684895
S             3.1474853760        1.8230617490        4.5248193137
S             3.1538358961        0.0000068460       -4.5222282367    0   0   0
S             4.7298973666        0.9103322260        1.5642875718
S             3.2307719429        1.7558986065        7.6825295881
Mo            3.1953418869        5.4860625918        6.1144012306
Mo            3.1538317519        3.6417399547       -6.0872367793    0   0   0
Mo            1.5767708081        4.5518571882       -0.0020216561
S             1.5769164523        2.7313069925       -7.6506323570    0   0   0
S             3.1533493058        3.6416220488       -1.5677103315
S             1.5762167735        4.5512963334        4.5922745154
S             1.5769173261        2.7313060890       -4.5222282367    0   0   0
S             3.1530879569        3.6417501257        1.5657440950
S             1.5762190907        4.5515859787        7.6008935978
Mo            1.5762232519        8.2126480564        6.0789798500
Mo            1.5769131819        6.3730391977       -6.0872367793    0   0   0
Mo           -0.0000039489        7.2826461156       -0.0024395881
S            -0.0000021176        5.4626062355       -7.6506323570    0   0   0
S             1.5767725528        6.3723415407       -1.5677144671
S            -0.0008376908        7.2761734071        4.5245053428
[...]
S             7.8844204118        6.3731688485        1.5628849102
S             6.3122215299        7.2855406867        7.6272463662
Mo           -0.0096240620       -0.0132686942        6.0619258212
Mo            6.3076557559        9.1043384407       -6.0872367793    0   0   0
Mo            4.7305910375       10.0144554011       -0.0029524281
S             4.7307404564        8.1939054785       -7.6506323570    0   0   0
S             6.3071379417        9.1042372416       -1.5689439271
S             4.7300561217       10.0139566286        4.4861379076
S             4.7307413301        8.1939045750       -4.5222282367    0   0   0
S             6.3079049865        9.1037703185        1.5628795182
S             4.7258287230       10.0162454577        7.6350359143
Pd            3.0697844522        5.4137867393        9.0633671536
Pd            0.0825768589        5.4138016389        9.0632930886
Pd            1.5762209042        2.8281313405        9.0640230308
Pd            1.5760832304        4.5534077643       11.0765915870
End final coordinates

     Writing all to output data dir ./outdir/pwscf.save/

     General routines

     Parallel routines

   This run was terminated on:  10:34: 9  10Dec2023

   JOB DONE.
Application 11448897 resources: utime ~2810937s, stime ~37548s, Rss ~2414616, inblocks ~0, outblocks ~37598368