     Program PWSCF v.7.2 starts on 17Dec2023 at 23:43:18

     Waiting for input...
     Reading input from standard input
Warning: card &CELL ignored
Warning: card / ignored

     Current dimensions of program PWSCF are:
     Max number of different atomic species (ntypx) = 10
     Max number of k-points (npk) =  40000
     Max angular momentum in pseudopotentials (lmaxx) =  4
     file Mo.pbe-spn-kjpaw_psl.1.0.0.UPF: wavefunction(s)  4S 4D renormalized
     file C.pbe-n-kjpaw_psl.1.0.0.UPF: wavefunction(s)  2S 2P renormalized
     Found identity + ( -0.0000  0.5000  0.0000) symmetry
     This is a supercell, fractional translations are disabled

     R & G space division:  proc/nbgrp/npool/nimage =      36
     Subspace diagonalization in iterative solution of the eigenvalue problem:
     one sub-group per band group will be used

     Using Slab Decomposition

     bravais-lattice index     =            0
     lattice parameter (alat)  =      22.7468  a.u.
     unit-cell volume          =   27705.9650 (a.u.)^3
     number of atoms/cell      =          144
     number of atomic types    =            2
     number of electrons       =      1536.00
     number of Kohn-Sham states=          922
     kinetic-energy cutoff     =      77.0000  Ry
     charge density cutoff     =     539.0000  Ry
     scf convergence threshold =      1.0E-06
     mixing beta               =       0.1000
     number of iterations used =            8  plain     mixing
     energy convergence thresh.=      1.0E-04
     force convergence thresh. =      1.0E-03
     Exchange-correlation= SLA  PW   PBX  PBC
                           (   1   4   3   4   0   0   0)
     nstep                     =         1000

     Effective Screening Medium Method
     Boundary Conditions: Vacuum-Slab-Vacuum
     total charge in unit cell        =   0.0000
     grid points for fit at edges     =        4

     celldm(1)=  22.746779  celldm(2)=   0.000000  celldm(3)=   0.000000
     celldm(4)=   0.000000  celldm(5)=   0.000000  celldm(6)=   0.000000

     crystal axes: (cart. coord. in units of alat)
               a(1) = (   1.000000   0.000000   0.000000 )
               a(2) = (   0.000000   1.165537   0.000000 )
               a(3) = (   0.000000   0.000000   2.019703 )

     reciprocal axes: (cart. coord. in units 2 pi/alat)
               b(1) = (  1.000000 -0.000000  0.000000 )
               b(2) = (  0.000000  0.857974  0.000000 )
               b(3) = (  0.000000  0.000000  0.495122 )

     PseudoPot. # 1 for Mo read from file:
     ./pseudo/Mo.pbe-spn-kjpaw_psl.1.0.0.UPF
     MD5 check sum: 317bf72632116215fd98f72de1686f13
     Pseudo is Projector augmented-wave + core cor, Zval = 14.0
     Generated using 'atomic' code by A. Dal Corso  v.7.2
     Shape of augmentation charge: PSQ
     Using radial grid of 1229 points,  6 beta functions with:
                l(1) =   0
                l(2) =   0
                l(3) =   1
                l(4) =   1
                l(5) =   2
                l(6) =   2
     Q(r) pseudized with 0 coefficients

     PseudoPot. # 2 for C  read from file:
     ./pseudo/C.pbe-n-kjpaw_psl.1.0.0.UPF
     MD5 check sum: 6b0792899573946bb42fe395835041da
     Pseudo is Projector augmented-wave + core cor, Zval =  4.0
     Generated using 'atomic' code by A. Dal Corso  v.7.2
     Shape of augmentation charge: PSQ
     Using radial grid of 1073 points,  4 beta functions with:
                l(1) =   0
                l(2) =   0
                l(3) =   1
                l(4) =   1
     Q(r) pseudized with 0 coefficients

     atomic species   valence    mass     pseudopotential
        Mo            14.00    95.95000     Mo( 1.00)
        C              4.00    12.01100     C ( 1.00)

     No symmetry found

   Cartesian axes

     site n.     atom                  positions (alat units)
         1           Mo  tau(   1) = (   0.0614124   0.4114182  -0.1957390  )
         2           Mo  tau(   2) = (   0.4385849   0.4904608  -0.3843849  )
         3           Mo  tau(   3) = (   0.1885861   0.2496895  -0.3383798  )
         4           Mo  tau(   4) = (   0.3114158   0.0694214  -0.2417462  )
         5           Mo  tau(   5) = (   0.1885864   0.4926342  -0.3867767  )
         6           Mo  tau(   6) = (   0.3114156   0.4092438  -0.1933476  )
         7           Mo  tau(   7) = (   0.0614128   0.0672474  -0.2393546  )
         8           Mo  tau(   8) = (   0.4385846   0.2518625  -0.3407714  )
         9           C   tau(   9) = (   0.1887296   0.5307164  -0.2175477  )
        10           C   tau(  10) = (   0.3112723   0.3711625  -0.3625770  )
        11           C   tau(  11) = (   0.0612693   0.2393330  -0.2175468  )
        12           C   tau(  12) = (   0.4387287   0.0797770  -0.3625785  )
        13           Mo  tau(  13) = (   0.0614118   0.1477594   0.0943232  )
        14           Mo  tau(  14) = (   0.4385844   0.2268020  -0.0943227  )
        15           Mo  tau(  15) = (   0.1885857   0.5687991  -0.0483176  )
        16           Mo  tau(  16) = (   0.3114155   0.3885311   0.0483160  )
        17           Mo  tau(  17) = (   0.1885859   0.2289754  -0.0967146  )
        18           Mo  tau(  18) = (   0.3114151   0.1455850   0.0967146  )
        19           Mo  tau(  19) = (   0.0614124   0.3863571   0.0507075  )
        20           Mo  tau(  20) = (   0.4385842   0.5709721  -0.0507092  )
        21           C   tau(  21) = (   0.1887291   0.2670576   0.0725145  )
        22           C   tau(  22) = (   0.3112718   0.1075037  -0.0725148  )
        23           C   tau(  23) = (   0.0612689   0.5584426   0.0725153  )
        24           C   tau(  24) = (   0.4387283   0.3988866  -0.0725164  )
        25           Mo  tau(  25) = (   0.0614115   0.4668690   0.3843853  )
        26           Mo  tau(  26) = (   0.4385840   0.5459116   0.1957394  )
        27           Mo  tau(  27) = (   0.1885852   0.3051403   0.2417445  )
        28           Mo  tau(  28) = (   0.3114150   0.1248722   0.3383781  )
        29           Mo  tau(  29) = (   0.1885856   0.5480850   0.1933476  )
        30           Mo  tau(  30) = (   0.3114148   0.4646946   0.3867767  )
        31           Mo  tau(  31) = (   0.0614119   0.1226983   0.3407697  )
        32           Mo  tau(  32) = (   0.4385837   0.3073133   0.2393529  )
        33           C   tau(  33) = (   0.1887285   0.0033988   0.3625766  )
        34           C   tau(  34) = (   0.3112714   0.4266133   0.2175473  )
        35           C   tau(  35) = (   0.0612684   0.2947838   0.3625775  )
        36           C   tau(  36) = (   0.4387278   0.1352278   0.2175458  )
        37           Mo  tau(  37) = (   0.0614125   0.9941867  -0.1957390  )
        38           Mo  tau(  38) = (   0.4385850   1.0732292  -0.3843849  )
        39           Mo  tau(  39) = (   0.1885862   0.8324579  -0.3383798  )
        40           Mo  tau(  40) = (   0.3114160   0.6521899  -0.2417462  )
        41           Mo  tau(  41) = (   0.1885866   1.0754027  -0.3867767  )
        42           Mo  tau(  42) = (   0.3114158   0.9920122  -0.1933476  )
        43           Mo  tau(  43) = (   0.0614130   0.6500159  -0.2393546  )
        44           Mo  tau(  44) = (   0.4385847   0.8346309  -0.3407714  )
        45           C   tau(  45) = (   0.1887297   1.1134849  -0.2175477  )
        46           C   tau(  46) = (   0.3112725   0.9539309  -0.3625770  )
        47           C   tau(  47) = (   0.0612694   0.8221014  -0.2175468  )
        48           C   tau(  48) = (   0.4387288   0.6625454  -0.3625785  )
        49           Mo  tau(  49) = (   0.0614120   0.7305278   0.0943232  )
        50           Mo  tau(  50) = (   0.4385845   0.8095704  -0.0943227  )
        51           Mo  tau(  51) = (   0.1885859   1.1515675  -0.0483176  )
        52           Mo  tau(  52) = (   0.3114156   0.9712995   0.0483160  )
        53           Mo  tau(  53) = (   0.1885861   0.8117438  -0.0967146  )
        54           Mo  tau(  54) = (   0.3114153   0.7283534   0.0967146  )
        55           Mo  tau(  55) = (   0.0614126   0.9691255   0.0507075  )
        56           Mo  tau(  56) = (   0.4385844   1.1537406  -0.0507092  )
        57           C   tau(  57) = (   0.1887292   0.8498261   0.0725145  )
        58           C   tau(  58) = (   0.3112719   0.6902721  -0.0725148  )
        59           C   tau(  59) = (   0.0612691   1.1412111   0.0725153  )
        60           C   tau(  60) = (   0.4387285   0.9816550  -0.0725164  )
[...]
       130           C   tau( 130) = (   0.8112719   0.6902721  -0.0725148  )
       131           C   tau( 131) = (   0.5612691   1.1412111   0.0725153  )
       132           C   tau( 132) = (   0.9387285   0.9816550  -0.0725164  )
       133           Mo  tau( 133) = (   0.5614117   1.0496375   0.3843853  )
       134           Mo  tau( 134) = (   0.9385842   1.1286800   0.1957394  )
       135           Mo  tau( 135) = (   0.6885854   0.8879087   0.2417445  )
       136           Mo  tau( 136) = (   0.8114151   0.7076407   0.3383781  )
       137           Mo  tau( 137) = (   0.6885857   1.1308535   0.1933476  )
       138           Mo  tau( 138) = (   0.8114149   1.0474630   0.3867767  )
       139           Mo  tau( 139) = (   0.5614121   0.7054667   0.3407697  )
       140           Mo  tau( 140) = (   0.9385839   0.8900818   0.2393529  )
       141           C   tau( 141) = (   0.6887287   0.5861673   0.3625766  )
       142           C   tau( 142) = (   0.8112716   1.0093817   0.2175473  )
       143           C   tau( 143) = (   0.5612686   0.8775523   0.3625775  )
       144           C   tau( 144) = (   0.9387280   0.7179962   0.2175458  )

     DFT-D3 Dispersion Correction (3-body terms):
       Reference C6 values for interpolation:

         atom   Coordination number   C6
         C          0.000            98.23
         C          0.987            86.49
         C          1.998            58.72
         C          2.999            51.56
         C          3.984            36.41
         Mo         0.000          1691.79
         Mo         1.942          1004.01
         Mo        11.056           674.22

       Values used:

         atom   Coordination number  R0_AB[au]  C6      C8
         Mo        13.576            3.547    674.22  77634.20
         Mo         8.238            3.547    674.22  77634.20
         Mo         9.133            3.547    674.22  77634.20
         Mo        12.659            3.547    674.22  77634.20
         Mo         8.157            3.547    674.22  77634.20
         Mo        13.586            3.547    674.22  77634.20
         Mo        12.693            3.547    674.22  77634.20
         Mo        10.049            3.547    674.22  77634.20
         C          6.038            2.750     36.41   1053.14
         C          5.000            2.750     36.41   1053.14
         C          6.032            2.750     36.41   1053.14
         C          4.042            2.750     36.58   1058.10
         Mo        13.639            3.547    674.22  77634.20
         Mo        13.639            3.547    674.22  77634.20
[...]
     atom   12 type  2   force =     0.00000000    0.00000000    0.00000000
     atom   13 type  1   force =    -0.00003701    0.00000657   -0.00001505
     atom   14 type  1   force =     0.00002090   -0.00001671   -0.00003808
     atom   15 type  1   force =    -0.00001443   -0.00004144   -0.00002247
     atom   16 type  1   force =    -0.00004642    0.00001386   -0.00003786
     atom   17 type  1   force =    -0.00001663    0.00004169   -0.00004398
     atom   18 type  1   force =     0.00003570   -0.00002547   -0.00001289
     atom   19 type  1   force =     0.00004790   -0.00000683   -0.00001546
     atom   20 type  1   force =     0.00001947    0.00002532   -0.00000512
     atom   21 type  2   force =    -0.00000646    0.00000834   -0.00001268
     atom   22 type  2   force =     0.00000635   -0.00000208   -0.00000872
     atom   23 type  2   force =    -0.00000185    0.00000022   -0.00001038
     atom   24 type  2   force =     0.00000153   -0.00000110   -0.00000948
     atom   25 type  1   force =     0.00006187   -0.00008059   -0.00000707
     atom   26 type  1   force =    -0.00001733    0.00004124   -0.00004838
     atom   27 type  1   force =    -0.00007439    0.00002534    0.00002007
     atom   28 type  1   force =     0.00000304   -0.00003095   -0.00000614
     atom   29 type  1   force =     0.00002349   -0.00002893   -0.00000323
     atom   30 type  1   force =    -0.00005928    0.00001092   -0.00001149
     atom   31 type  1   force =    -0.00000740    0.00006902   -0.00000977
     atom   32 type  1   force =     0.00007148   -0.00003699    0.00001712
     atom   33 type  2   force =     0.00000908   -0.00000698   -0.00000379
     atom   34 type  2   force =    -0.00000771    0.00000949   -0.00000081
     atom   35 type  2   force =     0.00000554    0.00000084   -0.00000182
     atom   36 type  2   force =     0.00000287   -0.00000022   -0.00000799
     atom   37 type  1   force =     0.00000000    0.00000000    0.00000000
     atom   38 type  1   force =     0.00000000    0.00000000    0.00000000
     atom   39 type  1   force =     0.00000000    0.00000000    0.00000000
     atom   40 type  1   force =     0.00000000    0.00000000    0.00000000
     atom   41 type  1   force =     0.00000000    0.00000000    0.00000000
     atom   42 type  1   force =     0.00000000    0.00000000    0.00000000
     atom   43 type  1   force =     0.00000000    0.00000000    0.00000000
     atom   44 type  1   force =     0.00000000    0.00000000    0.00000000
     atom   45 type  2   force =     0.00000000    0.00000000    0.00000000
     atom   46 type  2   force =     0.00000000    0.00000000    0.00000000
     atom   47 type  2   force =     0.00000000    0.00000000    0.00000000
     atom   48 type  2   force =     0.00000000    0.00000000    0.00000000
     atom   49 type  1   force =    -0.00003817    0.00001651   -0.00001508
     atom   50 type  1   force =     0.00002022   -0.00000515   -0.00004091
     atom   51 type  1   force =    -0.00001384   -0.00004723   -0.00002239
     atom   52 type  1   force =    -0.00004667    0.00002048   -0.00004205
     atom   53 type  1   force =    -0.00001580    0.00005327   -0.00004810
     atom   54 type  1   force =     0.00003673   -0.00001555   -0.00001376
     atom   55 type  1   force =     0.00004831   -0.00000100   -0.00001798
     atom   56 type  1   force =     0.00001895    0.00001929   -0.00000546
     atom   57 type  2   force =    -0.00000664    0.00001153   -0.00001332
     atom   58 type  2   force =     0.00000634    0.00000114   -0.00000981
     atom   59 type  2   force =    -0.00000163   -0.00000074   -0.00001046
     atom   60 type  2   force =     0.00000143    0.00000012   -0.00000969
[...]
     atom  130 type  2   force =     0.00000702    0.00000124   -0.00001004
     atom  131 type  2   force =    -0.00000089   -0.00000070   -0.00001006
     atom  132 type  2   force =     0.00000094    0.00000005   -0.00001005
     atom  133 type  1   force =     0.00006431   -0.00007863   -0.00000807
     atom  134 type  1   force =    -0.00001962    0.00004068   -0.00005033
     atom  135 type  1   force =    -0.00007446    0.00003300    0.00001810
     atom  136 type  1   force =     0.00000307   -0.00002569   -0.00000573
     atom  137 type  1   force =     0.00002423   -0.00002875   -0.00000514
     atom  138 type  1   force =    -0.00005896    0.00001372   -0.00001264
     atom  139 type  1   force =    -0.00000579    0.00007686   -0.00000901
     atom  140 type  1   force =     0.00007116   -0.00003057    0.00001483
     atom  141 type  2   force =     0.00000950   -0.00000665   -0.00000351
     atom  142 type  2   force =    -0.00000787    0.00001079   -0.00000173
     atom  143 type  2   force =     0.00000624    0.00000314   -0.00000193
     atom  144 type  2   force =     0.00000233    0.00000265   -0.00000841

     DFT-D3 dispersion contribution to forces:
     atom    1 type  1   force =    -0.00003190    0.00014078    0.00432264
     atom    2 type  1   force =     0.00020921   -0.00001137    0.00695497
     atom    3 type  1   force =     0.00010683   -0.00043882    0.00641773
     atom    4 type  1   force =    -0.00006546    0.00008000    0.00498543
     atom    5 type  1   force =    -0.00018146    0.00026448    0.00663188
     atom    6 type  1   force =    -0.00005765   -0.00013120    0.00464842
     atom    7 type  1   force =    -0.00002261   -0.00021242    0.00535385
     atom    8 type  1   force =    -0.00006804   -0.00003690    0.00635861
     atom    9 type  2   force =    -0.00001350   -0.00009749    0.00153392
     atom   10 type  2   force =     0.00006087   -0.00004302    0.00257517
     atom   11 type  2   force =     0.00002777    0.00008858    0.00158820
     atom   12 type  2   force =    -0.00007364   -0.00008045    0.00248192
     atom   13 type  1   force =    -0.00005505    0.00003585   -0.00226605
     atom   14 type  1   force =    -0.00003304   -0.00003537    0.00234805
     atom   15 type  1   force =     0.00014889   -0.00024245    0.00137409
     atom   16 type  1   force =    -0.00014058    0.00027588   -0.00118660
     atom   17 type  1   force =     0.00010129    0.00026140    0.00201208
     atom   18 type  1   force =    -0.00002676   -0.00020090   -0.00187719
     atom   19 type  1   force =     0.00004465   -0.00009533   -0.00082838
     atom   20 type  1   force =    -0.00002922    0.00009553    0.00099465
     atom   21 type  2   force =    -0.00009576    0.00003023   -0.00035265
     atom   22 type  2   force =     0.00004869   -0.00000997    0.00040699
     atom   23 type  2   force =     0.00006975    0.00001007   -0.00024713
     atom   24 type  2   force =    -0.00004937    0.00001770    0.00028499
     atom   25 type  1   force =    -0.00024386   -0.00003469   -0.00703143
     atom   26 type  1   force =     0.00009102   -0.00013339   -0.00430345
     atom   27 type  1   force =     0.00018964   -0.00008959   -0.00505876
     atom   28 type  1   force =    -0.00005787    0.00044154   -0.00646878
     atom   29 type  1   force =     0.00000486    0.00007650   -0.00473155
     atom   30 type  1   force =     0.00024385   -0.00021362   -0.00675333
     atom   31 type  1   force =     0.00005968    0.00014905   -0.00645154
     atom   32 type  1   force =    -0.00004157    0.00009415   -0.00537256
     atom   33 type  2   force =    -0.00011246   -0.00001394   -0.00261884
     atom   34 type  2   force =    -0.00003523    0.00005622   -0.00162248
     atom   35 type  2   force =     0.00002316    0.00007962   -0.00252323
     atom   36 type  2   force =     0.00000499   -0.00007682   -0.00157955
     atom   37 type  1   force =    -0.00003190    0.00014079    0.00432264
     atom   38 type  1   force =     0.00020921   -0.00001136    0.00695497
     atom   39 type  1   force =     0.00010683   -0.00043882    0.00641772
     atom   40 type  1   force =    -0.00006546    0.00008000    0.00498542
     atom   41 type  1   force =    -0.00018146    0.00026448    0.00663188
     atom   42 type  1   force =    -0.00005765   -0.00013119    0.00464842
     atom   43 type  1   force =    -0.00002261   -0.00021242    0.00535385
     atom   44 type  1   force =    -0.00006804   -0.00003689    0.00635860
     atom   45 type  2   force =    -0.00001350   -0.00009749    0.00153393
     atom   46 type  2   force =     0.00006087   -0.00004302    0.00257517
     atom   47 type  2   force =     0.00002777    0.00008859    0.00158819
     atom   48 type  2   force =    -0.00007364   -0.00008045    0.00248192
     atom   49 type  1   force =    -0.00005505    0.00003584   -0.00226607
     atom   50 type  1   force =    -0.00003304   -0.00003536    0.00234804
     atom   51 type  1   force =     0.00014889   -0.00024243    0.00137410
     atom   52 type  1   force =    -0.00014059    0.00027591   -0.00118661
     atom   53 type  1   force =     0.00010129    0.00026141    0.00201206
     atom   54 type  1   force =    -0.00002676   -0.00020091   -0.00187721
     atom   55 type  1   force =     0.00004465   -0.00009531   -0.00082839
     atom   56 type  1   force =    -0.00002922    0.00009554    0.00099465
     atom   57 type  2   force =    -0.00009576    0.00003024   -0.00035266
     atom   58 type  2   force =     0.00004869   -0.00000997    0.00040698
     atom   59 type  2   force =     0.00006975    0.00001008   -0.00024713
     atom   60 type  2   force =    -0.00004937    0.00001770    0.00028499
[...]
     atom  130 type  2   force =     0.00004869   -0.00000997    0.00040698
     atom  131 type  2   force =     0.00006973    0.00001008   -0.00024713
     atom  132 type  2   force =    -0.00004936    0.00001770    0.00028499
     atom  133 type  1   force =    -0.00024388   -0.00003465   -0.00703143
     atom  134 type  1   force =     0.00009105   -0.00013335   -0.00430345
     atom  135 type  1   force =     0.00018961   -0.00008956   -0.00505875
     atom  136 type  1   force =    -0.00005788    0.00044151   -0.00646876
     atom  137 type  1   force =     0.00000482    0.00007653   -0.00473155
     atom  138 type  1   force =     0.00024384   -0.00021359   -0.00675332
     atom  139 type  1   force =     0.00005965    0.00014903   -0.00645153
     atom  140 type  1   force =    -0.00004155    0.00009417   -0.00537255
     atom  141 type  2   force =    -0.00011247   -0.00001395   -0.00261884
     atom  142 type  2   force =    -0.00003523    0.00005624   -0.00162249
     atom  143 type  2   force =     0.00002315    0.00007963   -0.00252323
     atom  144 type  2   force =     0.00000500   -0.00007684   -0.00157955

     Total force =     0.005614     Total SCF correction =     0.000496
     Energy error            =      6.7E-05 Ry
     Gradient error          =      9.6E-04 Ry/Bohr

     bfgs converged in  18 scf cycles and  17 bfgs steps
     (criteria: energy <  1.0E-04 Ry, force <  1.0E-03 Ry/Bohr)

     End of BFGS Geometry Optimization

     Final energy             =  -35822.2366883424 Ry

     File ./outdir/pwscf.bfgs deleted, as requested
Begin final coordinates

ATOMIC_POSITIONS (angstrom)
Mo            0.7392252389        4.9522730417       -2.3561253762    0   0   0
Mo            5.2792801198        5.9037143760       -4.6268703194    0   0   0
Mo            2.2700251672        3.0055316874       -4.0731038654    0   0   0
Mo            3.7485363322        0.8356311525       -2.9099173021    0   0   0
Mo            2.2700294198        5.9298762914       -4.6556611445    0   0   0
Mo            3.7485340266        4.9260992348       -2.3273400206    0   0   0
Mo            0.7392304753        0.8094627244       -2.8811300177    0   0   0
Mo            5.2792763737        3.0316885591       -4.1018914514    0   0   0
C             2.2717523646        6.3882748537       -2.6186380862    0   0   0
C             3.7468086790        4.4677111832       -4.3643670699    0   0   0
C             0.7375030465        2.8808701434       -2.6186281718    0   0   0
C             5.2810110689        0.9602819819       -4.3643859785    0   0   0
Mo            0.7565917638        1.7661378113        1.1154759016
Mo            5.2727178479        2.7563414005       -1.1617528156
Mo            2.3251101703        6.8353099882       -0.5626150013
Mo            3.7452216739        4.6933865386        0.5682983558
Mo            2.2870818165        2.7920113032       -1.1921481329
Mo            3.7712434127        1.7736627634        1.1372651502
Mo            0.7278540962        4.6262008819        0.5865318454
Mo            5.3308055652        6.9141558693       -0.6217911741
C             2.2744581333        3.2213209844        0.9011104569
C             3.7689772030        1.3038381409       -0.9079702718
C             0.7848909700        6.7063871089        0.8595770973
C             5.2725235577        4.8359016931       -0.8830987543
Mo            0.7163933704        5.5621039159        4.3732100424
Mo            5.3377937092        6.5579069675        2.3610601559
Mo            2.3198691778        3.6510806458        2.9431626716
Mo            3.6044294402        1.3873222334        3.8286933157
Mo            2.2485283830        6.5982849543        2.3792953824
Mo            3.7752324341        5.7895381580        4.5141386825
Mo            0.8425000547        1.5529854160        4.0056232751
Mo            5.2929182094        3.6757734541        2.8484902154
C             2.1688998234        0.0472647321        4.6914455098
C             3.7771683607        5.1452025363        2.6292062457
C             0.7179513361        3.5416069274        4.4003673263
C             5.3079484313        1.6161037886        2.6142725415
Mo            0.7392271936       11.9671015276       -2.3561253762    0   0   0
Mo            5.2792820746       12.9185428619       -4.6268703194    0   0   0
Mo            2.2700271219       10.0203601733       -4.0731038654    0   0   0
Mo            3.7485382869        7.8504596385       -2.9099173021    0   0   0
Mo            2.2700313745       12.9447047774       -4.6556611445    0   0   0
Mo            3.7485359814       11.9409277208       -2.3273400206    0   0   0
Mo            0.7392324300        7.8242912103       -2.8811300177    0   0   0
Mo            5.2792783285       10.0465170451       -4.1018914514    0   0   0
C             2.2717543193       13.4031033396       -2.6186380862    0   0   0
C             3.7468106337       11.4825396691       -4.3643670699    0   0   0
C             0.7375050012        9.8956986294       -2.6186281718    0   0   0
C             5.2810130237        7.9751104678       -4.3643859785    0   0   0
Mo            0.7565950081        8.7809655463        1.1154757507
Mo            5.2727181404        9.7711749649       -1.1617531482
Mo            2.3251126334       13.8501436240       -0.5626187626
Mo            3.7452211326       11.7082239333        0.5682982877
Mo            2.2870860194        9.8068450286       -1.1921491705
Mo            3.7712438485        8.7884936737        1.1372672905
Mo            0.7278566387       11.6410342300        0.5865308419
Mo            5.3308083150       13.9289833775       -0.6217943421
C             2.2744615953       10.2361518867        0.9011113883
C             3.7689783304        8.3186606189       -0.9079681537
C             0.7848958254       13.7212180899        0.8595782643
C             5.2725242178       11.8507340948       -0.8830976343
[...]
C             9.7875178123        8.3186592727       -0.9079682554
C             6.8034301998       13.7212185848        0.8595796253
C            11.2910652583       11.8507328052       -0.8830954282
Mo            6.7349248386       12.5769432569        4.3732142679
Mo           11.3563411385       13.5727399848        2.3610596698
Mo            8.3384034675       10.6659150554        2.9431579184
Mo            9.6229656483        8.4021365514        3.8286832666
Mo            8.2670658504       13.6131295732        2.3793000290
Mo            9.7937764539       12.8043925053        4.5141399419
Mo            6.8610339417        8.5678158612        4.0056281839
Mo           11.3114608621       10.6906041584        2.8484848550
C             8.1874363163        7.0620780570        4.6914409038
C             9.7957070787       12.1600431849        2.6292125024
C             6.7364855963       10.5564417624        4.4003664970
C            11.3264955946        8.6309323945        2.6142693179
End final coordinates

     Writing all to output data dir ./outdir/pwscf.save/

     General routines

     Parallel routines

   This run was terminated on:  17:56:12  20Dec2023

   JOB DONE.
Application 11516198 resources: utime ~8488050s, stime ~92906s, Rss ~2391080, inblocks ~0, outblocks ~42755608