     Program PWSCF v.7.3 starts on  7May2024 at  4: 2:33

     Waiting for input...
     Reading input from standard input
Warning: card &CELL ignored
Warning: card / ignored

     Current dimensions of program PWSCF are:
     Max number of different atomic species (ntypx) = 10
     Max number of k-points (npk) =  40000
     Max angular momentum in pseudopotentials (lmaxx) =  4
     file Mo.pbe-spn-kjpaw_psl.1.0.0.UPF: wavefunction(s)  4S 4D renormalized
     file S.pbe-n-kjpaw_psl.1.0.0.UPF: wavefunction(s)  3S 3P renormalized
     file Pt.pbe-spfn-kjpaw_psl.1.0.0.UPF: wavefunction(s)  5P 4F renormalized
     file Pd.pbe-spn-kjpaw_psl.1.0.0.UPF: wavefunction(s)  4S 5S 4D renormalized

     R & G space division:  proc/nbgrp/npool/nimage =      36
     Subspace diagonalization in iterative solution of the eigenvalue problem:
     one sub-group per band group will be used

     Using Slab Decomposition

     bravais-lattice index     =            0
     lattice parameter (alat)  =      23.8199  a.u.
     unit-cell volume          =   33861.0370 (a.u.)^3
     number of atoms/cell      =          195
     number of atomic types    =            4
     number of electrons       =      1732.00
     number of Kohn-Sham states=         1039
     kinetic-energy cutoff     =      77.0000  Ry
     charge density cutoff     =     539.0000  Ry
     scf convergence threshold =      1.0E-06
     mixing beta               =       0.2000
     number of iterations used =            8  plain     mixing
     energy convergence thresh.=      1.0E-04
     force convergence thresh. =      1.0E-03
     Exchange-correlation= SLA  PW   PBX  PBC
                           (   1   4   3   4   0   0   0)
     nstep                     =         1000

     Effective Screening Medium Method
     Boundary Conditions: Vacuum-Slab-Vacuum
     total charge in unit cell        =   0.0000
     grid points for fit at edges     =        4

     celldm(1)=  23.819920  celldm(2)=   0.000000  celldm(3)=   0.000000
     celldm(4)=   0.000000  celldm(5)=   0.000000  celldm(6)=   0.000000

     crystal axes: (cart. coord. in units of alat)
               a(1) = (   1.000000   0.000000   0.000000 )
               a(2) = (  -0.499999   0.866026   0.000000 )
               a(3) = (   0.000000   0.000000   2.893000 )

     reciprocal axes: (cart. coord. in units 2 pi/alat)
               b(1) = (  1.000000  0.577349  0.000000 )
               b(2) = (  0.000000  1.154700  0.000000 )
               b(3) = (  0.000000  0.000000  0.345662 )

     PseudoPot. # 1 for Mo read from file:
     ./pseudo/Mo.pbe-spn-kjpaw_psl.1.0.0.UPF
     MD5 check sum: 317bf72632116215fd98f72de1686f13
     Pseudo is Projector augmented-wave + core cor, Zval = 14.0
     Generated using 'atomic' code by A. Dal Corso  v.7.2
     Shape of augmentation charge: PSQ
     Using radial grid of 1229 points,  6 beta functions with:
                l(1) =   0
                l(2) =   0
                l(3) =   1
                l(4) =   1
                l(5) =   2
                l(6) =   2
     Q(r) pseudized with 0 coefficients

     PseudoPot. # 2 for S  read from file:
     ./pseudo/S.pbe-n-kjpaw_psl.1.0.0.UPF
     MD5 check sum: 8b7b5302570d38d5e87fed6a1065abda
     Pseudo is Projector augmented-wave + core cor, Zval =  6.0
     Generated using 'atomic' code by A. Dal Corso  v.7.2
     Shape of augmentation charge: PSQ
     Using radial grid of 1151 points,  6 beta functions with:
                l(1) =   0
                l(2) =   0
                l(3) =   1
                l(4) =   1
                l(5) =   2
                l(6) =   2
     Q(r) pseudized with 0 coefficients

     PseudoPot. # 3 for Pt read from file:
     ./pseudo/Pt.pbe-spfn-kjpaw_psl.1.0.0.UPF
     MD5 check sum: 620096ebf4e6ebacc94de60fd67efcb5
     Pseudo is Projector augmented-wave + core cor, Zval = 32.0
     Generated using 'atomic' code by A. Dal Corso  v.7.2
     Shape of augmentation charge: PSQ
     Using radial grid of 1277 points,  8 beta functions with:
                l(1) =   0
                l(2) =   0
                l(3) =   1
                l(4) =   1
                l(5) =   2
                l(6) =   2
                l(7) =   3
                l(8) =   3
     Q(r) pseudized with 0 coefficients

     PseudoPot. # 4 for Pd read from file:
     ./pseudo/Pd.pbe-spn-kjpaw_psl.1.0.0.UPF
     MD5 check sum: a60571a671f2502b8a6a4569d20a6edb
     Pseudo is Projector augmented-wave + core cor, Zval = 18.0
     Generated using 'atomic' code by A. Dal Corso  v.7.2
     Shape of augmentation charge: PSQ
     Using radial grid of 1235 points,  6 beta functions with:
                l(1) =   0
                l(2) =   0
                l(3) =   1
                l(4) =   1
                l(5) =   2
                l(6) =   2
     Q(r) pseudized with 0 coefficients

     atomic species   valence    mass     pseudopotential
     Mo               14.00    95.95000     Mo( 1.00)
     S                 6.00    32.06000     S ( 1.00)
     Pt               32.00   195.08400     Pt( 1.00)
     Pd               18.00   106.42000     Pd( 1.00)

     No symmetry found

   Cartesian axes

     site n.     atom                  positions (alat units)
         1        Mo     tau(   1) = (   0.0000010   0.1443372  -0.7272732  )
         2        Mo     tau(   2) = (   0.1249995   0.0721706  -0.2424038  )
         3        S      tau(   3) = (   0.0000015   0.1443386  -0.3667807  )
         4        S      tau(   4) = (   0.1250010   0.0721682  -0.6030489  )
         5        S      tau(   5) = (   0.1250010   0.0721683  -0.8514963  )
         6        S      tau(   6) = (   0.0000015   0.1443389  -0.1180260  )
         7        Mo     tau(   7) = (   0.0000005   0.1443381   0.2424561  )
         8        Mo     tau(   8) = (   0.1251981   0.0716023   0.7276027  )
         9        S      tau(   9) = (  -0.0003031   0.1454842   0.6052312  )
        10        S      tau(  10) = (   0.1249558   0.0721599   0.3668208  )
        11        S      tau(  11) = (   0.1250088   0.0721517   0.1180857  )
        12        S      tau(  12) = (  -0.0004157   0.1382876   0.8564685  )
        13        Mo     tau(  13) = (  -0.1249989   0.3608437  -0.7272732  )
        14        Mo     tau(  14) = (   0.0000030   0.2886752  -0.2424042  )
        15        S      tau(  15) = (  -0.1249977   0.3608450  -0.3667802  )
        16        S      tau(  16) = (   0.0000012   0.2886747  -0.6030489  )
        17        S      tau(  17) = (   0.0000012   0.2886748  -0.8514963  )
        18        S      tau(  18) = (  -0.1249977   0.3608454  -0.1180274  )
        19        Mo     tau(  19) = (  -0.1249623   0.3608201   0.2425155  )
        20        Mo     tau(  20) = (  -0.0007801   0.2872696   0.7308518  )
        21        S      tau(  21) = (  -0.1240398   0.3604107   0.6055268  )
        22        S      tau(  22) = (   0.0000411   0.2886546   0.3669163  )
        23        S      tau(  23) = (   0.0000035   0.2886726   0.1180964  )
        24        S      tau(  24) = (  -0.1315418   0.3638985   0.8543850  )
        25        Mo     tau(  25) = (  -0.2499987   0.5773502  -0.7272732  )
        26        Mo     tau(  26) = (  -0.1249977   0.5051839  -0.2424055  )
        27        S      tau(  27) = (  -0.2499981   0.5773518  -0.3667809  )
        28        S      tau(  28) = (  -0.1249986   0.5051812  -0.6030489  )
        29        S      tau(  29) = (  -0.1249986   0.5051813  -0.8514963  )
        30        S      tau(  30) = (  -0.2499979   0.5773512  -0.1180266  )
        31        Mo     tau(  31) = (  -0.2499787   0.5773156   0.2425145  )
        32        Mo     tau(  32) = (  -0.1271807   0.5060660   0.7281741  )
        33        S      tau(  33) = (  -0.2502658   0.5775034   0.6017985  )
        34        S      tau(  34) = (  -0.1249543   0.5051367   0.3669386  )
        35        S      tau(  35) = (  -0.1249864   0.5051552   0.1181399  )
        36        S      tau(  36) = (  -0.2525628   0.5785576   0.8514793  )
        37        Mo     tau(  37) = (  -0.3749985   0.7938567  -0.7272732  )
        38        Mo     tau(  38) = (  -0.2500001   0.7216874  -0.2424031  )
        39        S      tau(  39) = (  -0.3749980   0.7938584  -0.3667800  )
        40        S      tau(  40) = (  -0.2499984   0.7216877  -0.6030489  )
        41        S      tau(  41) = (  -0.2499984   0.7216878  -0.8514963  )
        42        S      tau(  42) = (  -0.3749982   0.7938585  -0.1180264  )
        43        Mo     tau(  43) = (  -0.3750043   0.7938372   0.2424536  )
        44        Mo     tau(  44) = (  -0.2503619   0.7218808   0.7263407  )
        45        S      tau(  45) = (  -0.3755748   0.7941519   0.6023691  )
        46        S      tau(  46) = (  -0.2500067   0.7216811   0.3668312  )
        47        S      tau(  47) = (  -0.2499793   0.7216445   0.1181126  )
        48        S      tau(  48) = (  -0.3746959   0.7932047   0.8515893  )
        49        Mo     tau(  49) = (   0.2500010   0.1443372  -0.7272732  )
        50        Mo     tau(  50) = (   0.3750034   0.0721723  -0.2424032  )
        51        S      tau(  51) = (   0.2500017   0.1443391  -0.3667788  )
        52        S      tau(  52) = (   0.3750010   0.0721682  -0.6030489  )
        53        S      tau(  53) = (   0.3750010   0.0721683  -0.8514963  )
        54        S      tau(  54) = (   0.2500016   0.1443391  -0.1180271  )
        55        Mo     tau(  55) = (   0.2500033   0.1443124   0.2424881  )
        56        Mo     tau(  56) = (   0.3752595   0.0716472   0.7255395  )
        57        S      tau(  57) = (   0.2498544   0.1431280   0.6011361  )
        58        S      tau(  58) = (   0.3750516   0.0721435   0.3668117  )
        59        S      tau(  59) = (   0.3750079   0.0721203   0.1180977  )
        60        S      tau(  60) = (   0.2517312   0.1427646   0.8506906  )
[...]
       181        Mo     tau( 181) = (   0.3750016   0.7938567  -0.7272732  )
       182        Mo     tau( 182) = (   0.5000025   0.7216901  -0.2424039  )
       183        S      tau( 183) = (   0.3750019   0.7938578  -0.3667793  )
       184        S      tau( 184) = (   0.5000016   0.7216877  -0.6030489  )
       185        S      tau( 185) = (   0.5000016   0.7216878  -0.8514963  )
       186        S      tau( 186) = (   0.3750020   0.7938579  -0.1180272  )
       187        Mo     tau( 187) = (   0.3749951   0.7938323   0.2424893  )
       188        Mo     tau( 188) = (   0.4998599   0.7217391   0.7271366  )
       189        S      tau( 189) = (   0.3746033   0.7939741   0.6029663  )
       190        S      tau( 190) = (   0.4999946   0.7216688   0.3668260  )
       191        S      tau( 191) = (   0.4999891   0.7216628   0.1180901  )
       192        S      tau( 192) = (   0.3755955   0.7938624   0.8526444  )
       193        Pt     tau( 193) = (   0.1194898   0.4990527   0.9549993  )
       194        Pd     tau( 194) = (   0.0026419   0.2990244   0.9662205  )
       195        Pd     tau( 195) = (   0.0026180   0.2990093   1.1645417  )

     DFT-D3 Dispersion Correction (3-body terms):
       Reference C6 values for interpolation:

[...]
   -40.6784 -40.6763 -40.6651 -40.6646 -40.6626 -40.6624 -40.6622 -40.6621
   -40.6621 -40.6621 -40.6620 -40.6617 -40.6612 -40.6612 -40.6612 -40.6612
   -40.6610 -40.6420 -40.6371 -40.6275 -40.6275 -40.6274 -40.6274 -40.6274
   -40.6274 -40.6274 -40.6274 -40.6265 -40.6265 -40.6265 -40.6265 -40.6233
   -40.6192 -40.6154 -40.6153 -40.6153 -40.6152 -40.6143 -40.6143 -40.6123
   -40.6039 -40.6012 -40.5963 -40.5959 -40.5959 -40.5957 -40.5950 -40.5950
   -40.5855 -40.5827 -40.5790 -40.5790 -40.5790 -40.5790 -40.5780 -40.5780
   -40.5778 -40.5598 -40.5485 -40.5483 -40.5483 -40.5481 -40.5477 -40.5473
   -40.5473 -40.5354 -40.5013 -20.0889 -19.8816 -19.8601 -19.8233 -19.7643
   -19.7301 -19.6547 -19.6397 -19.5409 -19.4680 -19.4232 -19.4096 -19.3352
   -19.3169 -19.2312 -19.2191 -19.1300 -18.8483 -18.8144 -18.7806 -18.7561
   -18.7336 -18.7155 -18.7106 -18.7093 -18.7001 -18.6924 -18.6565 -18.6471
   -18.6383 -18.6331 -18.6174 -18.5797 -18.5773 -18.5637 -18.5462 -18.5407
   -18.5394 -18.5370 -18.5144 -18.4882 -18.4813 -18.4789 -18.4698 -18.4590
   -18.4295 -18.4050 -18.4026 -18.3932 -18.3882 -18.3662 -18.3510 -18.3249
   -18.3163 -18.3088 -18.3046 -18.2560 -18.2381 -18.2299 -18.2247 -18.1989
   -18.1842 -18.1648 -18.1584 -18.1432 -18.1169 -18.1069 -18.1025 -18.0950
   -18.0932 -18.0901 -18.0879 -18.0700 -18.0668 -18.0659 -18.0631 -18.0594
   -18.0570 -18.0539 -18.0408 -18.0395 -18.0342 -18.0289 -18.0243 -18.0048
   -17.9991 -17.9951 -17.9924 -17.9922 -17.9891 -17.9857 -17.9820 -17.9790
   -17.9692 -17.9484 -17.9309 -17.9285 -17.9255 -17.9197 -17.9144 -17.8873
   -17.8800 -17.8736 -17.8698 -17.8451 -17.8417 -17.8343 -17.8323 -17.8276
   -17.8248 -17.8119 -17.8101 -17.8099 -17.8092 -17.8088 -17.8084 -17.7969
   -17.7950 -17.7779 -17.7749 -17.7537 -17.7515 -17.7348 -17.7325 -17.7193
   -17.7184 -17.7109 -17.7108 -12.1860 -11.9533 -11.7244 -11.7165 -11.6674
   -11.5916 -11.5118 -11.5109 -11.4946 -11.4907 -11.4793 -11.4764 -11.4724
   -11.4476 -11.4418 -11.4270 -11.3995 -11.3897 -11.3844 -11.3591 -11.3404
   -11.3336 -11.3292 -11.3098 -11.2969 -11.2891 -11.2841 -11.2681 -11.2554
   -11.2528 -11.2520 -11.2466 -11.2423 -11.2022 -11.1988 -11.1903 -11.1865
   -11.1716 -11.1630 -11.1621 -11.1590 -11.1471 -11.1414 -11.1380 -11.1306
   -11.1168 -11.1080 -11.0885 -11.0665 -11.0637 -11.0450 -11.0341 -10.9948
   -10.9784 -10.9512 -10.9391 -10.9302 -10.9183 -10.8953 -10.8881 -10.8794
   -10.8649 -10.8440 -10.8294 -10.8251 -10.8246 -10.8219 -10.8061 -10.8034
   -10.8025 -10.8019 -10.8009 -10.7961 -10.7929 -10.7891 -10.7881 -10.7832
[...]
    -3.3977  -3.3583  -3.3442  -3.3410  -3.3387  -3.3328  -3.3302  -3.3287
    -3.3266  -3.3138  -3.3036  -3.2873  -3.2825  -3.2759  -3.2719  -3.2686
    -3.2667  -3.2662  -3.2637  -3.2475  -3.2383  -3.2338  -3.2315  -3.2204
    -3.2175  -3.2139  -3.2078  -3.2016  -3.2005  -3.1906  -3.1833  -3.1789
    -3.1712  -3.1662  -3.1651  -3.1571  -3.1515  -3.1515  -3.1502  -3.1329
    -3.1257  -3.0991  -3.0833  -3.0797  -3.0634  -3.0574  -3.0568  -3.0474
    -3.0399  -3.0224  -3.0171  -3.0135  -3.0113  -3.0104  -3.0097  -3.0063
    -3.0019  -2.9993  -2.9946  -2.9941  -2.9879  -2.9815  -2.9771  -2.9734
    -2.9686  -2.9619  -2.9595  -2.9576  -2.9561  -2.9528  -2.9405  -2.9387
    -2.9358  -2.9317  -2.9290  -2.9242  -2.9215  -2.9173  -2.9012  -2.8936
    -2.8881  -2.8743  -2.8712  -2.8674  -2.8631  -2.8481  -2.8391  -2.7901
    -2.7838  -2.7767  -2.7723  -2.7207  -2.7151  -2.7102  -2.7049  -2.6169
    -2.6011  -2.5864  -2.5787  -2.5680  -2.5548  -2.5364  -2.5324  -2.5254
    -2.5223  -2.5191  -2.5162  -2.5155  -2.5025  -2.4140  -2.4084  -2.4024
    -2.3917  -2.3817  -2.3794  -2.3713  -2.3683  -2.3417  -2.3377

     the Fermi energy is    -4.8048 ev

!    total energy              =  -34492.24308809 Ry
     total all-electron energy =   -677498.122775 Ry
     estimated scf accuracy    <          6.5E-09 Ry
     smearing contrib. (-TS)   =      -0.00053435 Ry
     internal energy E=F+TS    =  -34492.24255374 Ry

     The total energy is F=E-TS. E is the sum of the following terms:
     one-electron contribution = 1202249.01955157 Ry
     hartree contribution      = -601302.53140970 Ry
     xc contribution           =   -2041.54409279 Ry
     ewald contribution        = -611833.59684797 Ry
     DFT-D3 Dispersion         =      -5.45115830 Ry
     one-center paw contrib.   =  -21558.13859654 Ry

     convergence has been achieved in  13 iterations

     negative rho (up, down):  9.220E-04 0.000E+00

     Forces acting on atoms (cartesian axes, Ry/au):

     atom    1 type  1   force =     0.00000149   -0.00000161    0.00068643
     atom    2 type  1   force =     0.00001067   -0.00003393    0.00002123
     atom    3 type  2   force =     0.00000536    0.00000415   -0.00000230
     atom    4 type  2   force =     0.00000018   -0.00000117    0.00161415
     atom    5 type  2   force =    -0.00000014   -0.00000168   -0.00236193
     atom    6 type  2   force =    -0.00002549   -0.00004522    0.00010335
     atom    7 type  1   force =     0.00003145    0.00001799   -0.00001694
     atom    8 type  1   force =     0.00029314   -0.00013873   -0.00008405
     atom    9 type  2   force =     0.00007348    0.00000352    0.00058887
     atom   10 type  2   force =     0.00001292   -0.00000426   -0.00008463
     atom   11 type  2   force =     0.00004579    0.00001667   -0.00008471
     atom   12 type  2   force =    -0.00020317   -0.00055036   -0.00049069
     atom   13 type  1   force =     0.00000251   -0.00000244    0.00068618
     atom   14 type  1   force =    -0.00002663   -0.00001304    0.00002669
     atom   15 type  2   force =     0.00000795    0.00000369    0.00000039
     atom   16 type  2   force =     0.00000040   -0.00000120    0.00161424
     atom   17 type  2   force =     0.00000006   -0.00000168   -0.00236251
     atom   18 type  2   force =    -0.00002553   -0.00003672    0.00009867
     atom   19 type  1   force =     0.00001157    0.00002452   -0.00002200
     atom   20 type  1   force =     0.00007988   -0.00001489    0.00058152
     atom   21 type  2   force =    -0.00065437    0.00050254    0.00016774
     atom   22 type  2   force =     0.00003911    0.00007132   -0.00004700
     atom   23 type  2   force =     0.00003304    0.00001729    0.00003661
     atom   24 type  2   force =     0.00008027   -0.00038454   -0.00036429
     atom   25 type  1   force =     0.00000187   -0.00000204    0.00068533
     atom   26 type  1   force =    -0.00001447   -0.00003461    0.00003255
     atom   27 type  2   force =     0.00000505    0.00000537   -0.00000301
     atom   28 type  2   force =     0.00000044   -0.00000131    0.00161420
     atom   29 type  2   force =     0.00000025   -0.00000193   -0.00236223
     atom   30 type  2   force =    -0.00002071   -0.00004623    0.00010195
     atom   31 type  1   force =     0.00003798   -0.00000615   -0.00005515
     atom   32 type  1   force =    -0.00008670    0.00028258    0.00008349
     atom   33 type  2   force =    -0.00019909   -0.00014040   -0.00030107
     atom   34 type  2   force =     0.00004175    0.00003436   -0.00008264
     atom   35 type  2   force =     0.00004815   -0.00002853   -0.00009557
     atom   36 type  2   force =    -0.00041540   -0.00040226    0.00047312
     atom   37 type  1   force =     0.00000245   -0.00000166    0.00068560
     atom   38 type  1   force =     0.00001153   -0.00000580    0.00001381
     atom   39 type  2   force =     0.00000394    0.00000479    0.00000088
     atom   40 type  2   force =     0.00000039   -0.00000119    0.00161408
     atom   41 type  2   force =     0.00000009   -0.00000189   -0.00236183
     atom   42 type  2   force =    -0.00002536   -0.00004340    0.00010482
     atom   43 type  1   force =     0.00002867   -0.00001771   -0.00003340
     atom   44 type  1   force =    -0.00045839   -0.00013597    0.00003459
     atom   45 type  2   force =    -0.00013566    0.00060527   -0.00038213
     atom   46 type  2   force =     0.00001948   -0.00005600   -0.00001726
     atom   47 type  2   force =    -0.00000838    0.00000715   -0.00007395
     atom   48 type  2   force =     0.00015817    0.00045780    0.00027788
     atom   49 type  1   force =     0.00000169   -0.00000188    0.00068602
     atom   50 type  1   force =    -0.00003972   -0.00005398    0.00001728
     atom   51 type  2   force =     0.00000335    0.00000638    0.00000154
     atom   52 type  2   force =     0.00000004   -0.00000128    0.00161432
     atom   53 type  2   force =    -0.00000016   -0.00000181   -0.00236171
     atom   54 type  2   force =    -0.00002609   -0.00003993    0.00010104
     atom   55 type  1   force =     0.00003337    0.00001111   -0.00001779
     atom   56 type  1   force =    -0.00031666   -0.00007776    0.00016191
     atom   57 type  2   force =    -0.00007609    0.00068283    0.00032659
     atom   58 type  2   force =     0.00006375   -0.00002902   -0.00007149
     atom   59 type  2   force =    -0.00001037    0.00000387   -0.00005371
     atom   60 type  2   force =    -0.00039952    0.00050910    0.00013303
[...]
     atom  181 type  1   force =     0.00000212   -0.00000158    0.00068563
     atom  182 type  1   force =    -0.00002576   -0.00003711    0.00002029
     atom  183 type  2   force =     0.00000174    0.00000219    0.00000021
     atom  184 type  2   force =     0.00000014   -0.00000128    0.00161414
     atom  185 type  2   force =    -0.00000007   -0.00000187   -0.00236175
     atom  186 type  2   force =    -0.00002908   -0.00004779    0.00009943
     atom  187 type  1   force =     0.00001297    0.00001853   -0.00003074
     atom  188 type  1   force =     0.00036059    0.00048820    0.00003063
     atom  189 type  2   force =     0.00005752    0.00018171   -0.00003635
     atom  190 type  2   force =     0.00000846   -0.00001911   -0.00009220
     atom  191 type  2   force =    -0.00000153    0.00002532   -0.00006497
     atom  192 type  2   force =    -0.00005498    0.00002952   -0.00022791
     atom  193 type  3   force =     0.00038087    0.00018889    0.00035944
     atom  194 type  4   force =    -0.00097734   -0.00060263    0.00091463
     atom  195 type  4   force =    -0.00058806   -0.00044918   -0.00090139

     Total force =     0.004546     Total SCF correction =     0.000454
     Energy error            =      3.3E-05 Ry
     Gradient error          =      9.8E-04 Ry/Bohr

     bfgs converged in  63 scf cycles and  62 bfgs steps
     (criteria: energy <  1.0E-04 Ry, force <  1.0E-03 Ry/Bohr)

     End of BFGS Geometry Optimization

     Final energy             =  -34492.2430880886 Ry

     File ./outdir/pwscf.bfgs deleted, as requested
Begin final coordinates

ATOMIC_POSITIONS (angstrom)
Mo               0.0000119917        1.8193638619       -9.1672481230    0   0   0
Mo               1.5756136568        0.9097075315       -3.0554901653    0   0   0
S                0.0000188998        1.8193822938       -4.6232556019    0   0   0
S                1.5756321638        0.9096773839       -7.6014065489    0   0   0
S                1.5756326175        0.9096785128      -10.7330757790    0   0   0
S                0.0000189190        1.8193860094       -1.4877129945    0   0   0
Mo              -0.0066463358        1.8093644624        3.0627656713
Mo               1.5769572756        0.8827383995        9.1747416224
S               -0.0046757313        1.8154814086        7.6321229845
S                1.5684542254        0.8996429617        4.6308371963
S                1.5691741540        0.8996825376        1.4952356025
S               -0.0087240187        1.6839726904       10.8034829996
Mo              -1.5756053507        4.5484193819       -9.1672481230    0   0   0
Mo               0.0000378379        3.6387394919       -3.0554952701    0   0   0
S               -1.5755913433        4.5484363582       -4.6232494962    0   0   0
S                0.0000148214        3.6387329039       -7.6014065489    0   0   0
S                0.0000152751        3.6387340328      -10.7330757790    0   0   0
S               -1.5755906502        4.5484413613       -1.4877305502    0   0   0
Mo              -1.5817436109        4.5380037013        3.0634342307
Mo              -0.0187384455        3.5957508307        9.2280111799
S               -1.5602917372        4.5233900238        7.6385445173
S               -0.0063138459        3.6281073105        4.6315275006
S               -0.0067406462        3.6286282188        1.4948075356
S               -1.6596325933        4.5604857681       10.7757832775
Mo              -3.1512226931        7.2774749019       -9.1672481230    0   0   0
Mo              -1.5755910988        6.3678216792       -3.0555115988    0   0   0
S               -3.1512162438        7.2774954350       -4.6232578178    0   0   0
S               -1.5756025210        6.3677884239       -7.6014065489    0   0   0
S               -1.5756020673        6.3677895528      -10.7330757790    0   0   0
S               -3.1512127704        7.2774877076       -1.4877200710    0   0   0
Mo              -3.1574638998        7.2672756714        3.0636646737
Mo              -1.6012845366        6.3616613808        9.1856852059
S               -3.1491082413        7.2593142515        7.5897600237
S               -1.5816815368        6.3568642401        4.6319398266
S               -1.5821004728        6.3576872259        1.4958609560
S               -3.1815643100        7.2763320526       10.7366756443
Mo              -4.7268400355       10.0065304219       -9.1672481230    0   0   0
Mo              -3.1512405618        9.0968403586       -3.0554816746    0   0   0
S               -4.7268341792       10.0065523623       -4.6232463762    0   0   0
S               -3.1512198634        9.0968439439       -7.6014065489    0   0   0
S               -3.1512194097        9.0968450728      -10.7330757790    0   0   0
S               -4.7268370797       10.0065537885       -1.4877176751    0   0   0
Mo              -4.7333485301        9.9964975772        3.0629499501
Mo              -3.1537904701        9.0807488905        9.1569931339
S               -4.7342254827        9.9892453501        7.5948402320
S               -3.1576322283        9.0869659045        4.6306468212
S               -3.1572591156        9.0867199768        1.4956008435
S               -4.7255086039        9.9719543326       10.7326584461
Mo               3.1512517547        1.8193638619       -9.1672481230    0   0   0
Mo               4.7269020221        0.9097289540       -3.0554823951    0   0   0
S                3.1512612351        1.8193882564       -4.6232320683    0   0   0
S                4.7268719268        0.9096773839       -7.6014065489    0   0   0
S                4.7268723805        0.9096785128      -10.7330757790    0   0   0
S                3.1512592485        1.8193890201       -1.4877261251    0   0   0
Mo               3.1444983327        1.8093513308        3.0634027320
Mo               4.7265285548        0.8896806278        9.1540699925
S                3.1451090657        1.7961675645        7.5905662921
S                4.7204284271        0.8997371497        4.6306477587
S                4.7204619930        0.8996578867        1.4955485049
S                3.1654668999        1.7779848375       10.7362812213
[...]
Mo               4.7268792535       10.0065304219       -9.1672481230    0   0   0
Mo               6.3025111524        9.0968738021       -3.0554915260    0   0   0
S                4.7268840634       10.0065452125       -4.6232380477    0   0   0
S                6.3024994256        9.0968439439       -7.6014065489    0   0   0
S                6.3024998793        9.0968450728      -10.7330757790    0   0   0
S                4.7268847312       10.0065459141       -1.4877283294    0   0   0
Mo               4.7202555022        9.9961037007        3.0633437001
Mo               6.2957140909        9.0761550596        9.1636121078
S                4.7189778586        9.9874459086        7.5952767007
S                6.2960543879        9.0867082966        4.6306680499
S                6.2959435486        9.0866337096        1.4953489184
S                4.7274829969        9.9852843851       10.7434385451
Pt               1.5565848397        6.3015142391       12.0678424183
Pd               0.0491202782        3.6266899567       12.1627380613
Pd               0.4621706605        5.2698027804       14.1245418638
End final coordinates

     Writing all to output data dir ./outdir/pwscf.save/ :
     XML data file, charge density, pseudopotentials, collected wavefunctions

     General routines

     Parallel routines

   This run was terminated on:  15:49:18   8May2024

   JOB DONE.