     Program PWSCF v.7.2 starts on 13Aug2023 at 15:36:28

     Waiting for input...
     Reading input from standard input
Warning: card &CELL ignored
Warning: card / ignored

     Current dimensions of program PWSCF are:
     Max number of different atomic species (ntypx) = 10
     Max number of k-points (npk) =  40000
     Max angular momentum in pseudopotentials (lmaxx) =  4
     file Mo.pbe-spn-kjpaw_psl.1.0.0.UPF: wavefunction(s)  4S 4D renormalized
     file S.pbe-n-kjpaw_psl.1.0.0.UPF: wavefunction(s)  3S 3P renormalized
     file H.pbe-kjpaw_psl.1.0.0.UPF: wavefunction(s)  1S renormalized

     R & G space division:  proc/nbgrp/npool/nimage =      36
     Subspace diagonalization in iterative solution of the eigenvalue problem:
     one sub-group per band group will be used

     Using Slab Decomposition

     bravais-lattice index     =            0
     lattice parameter (alat)  =      23.8395  a.u.
     unit-cell volume          =   28182.8498 (a.u.)^3
     number of atoms/cell      =          145
     number of atomic types    =            3
     number of electrons       =      1249.00
     number of Kohn-Sham states=          750
     kinetic-energy cutoff     =      77.0000  Ry
     charge density cutoff     =     539.0000  Ry
     scf convergence threshold =      1.0E-06
     mixing beta               =       0.2000
     number of iterations used =            8  plain     mixing
     energy convergence thresh.=      1.0E-04
     force convergence thresh. =      1.0E-03
     Exchange-correlation= SLA  PW   PBX  PBC
                           (   1   4   3   4   0   0   0)
     nstep                     =         1000

     Effective Screening Medium Method
     Boundary Conditions: Vacuum-Slab-Vacuum
     total charge in unit cell        =   0.0000
     grid points for fit at edges     =        4

     celldm(1)=  23.839504  celldm(2)=   0.000000  celldm(3)=   0.000000
     celldm(4)=   0.000000  celldm(5)=   0.000000  celldm(6)=   0.000000

     crystal axes: (cart. coord. in units of alat)
               a(1) = (   1.000000   0.000000   0.000000 )
               a(2) = (  -0.500001   0.866026   0.000000 )
               a(3) = (   0.000000   0.000000   2.401941 )

     reciprocal axes: (cart. coord. in units 2 pi/alat)
               b(1) = (  1.000000  0.577351  0.000000 )
               b(2) = (  0.000000  1.154700  0.000000 )
               b(3) = (  0.000000  0.000000  0.416330 )

     PseudoPot. # 1 for Mo read from file:
     ./pseudo/Mo.pbe-spn-kjpaw_psl.1.0.0.UPF
     MD5 check sum: 317bf72632116215fd98f72de1686f13
     Pseudo is Projector augmented-wave + core cor, Zval = 14.0
     Generated using 'atomic' code by A. Dal Corso  v.7.2
     Shape of augmentation charge: PSQ
     Using radial grid of 1229 points,  6 beta functions with:
                l(1) =   0
                l(2) =   0
                l(3) =   1
                l(4) =   1
                l(5) =   2
                l(6) =   2
     Q(r) pseudized with 0 coefficients

     PseudoPot. # 2 for S  read from file:
     ./pseudo/S.pbe-n-kjpaw_psl.1.0.0.UPF
     MD5 check sum: 8b7b5302570d38d5e87fed6a1065abda
     Pseudo is Projector augmented-wave + core cor, Zval =  6.0
     Generated using 'atomic' code by A. Dal Corso  v.7.2
     Shape of augmentation charge: PSQ
     Using radial grid of 1151 points,  6 beta functions with:
                l(1) =   0
                l(2) =   0
                l(3) =   1
                l(4) =   1
                l(5) =   2
                l(6) =   2
     Q(r) pseudized with 0 coefficients

     PseudoPot. # 3 for H  read from file:
     ./pseudo/H.pbe-kjpaw_psl.1.0.0.UPF
     MD5 check sum: b3cb3c48ee3b58cc53e4d592112d0ca6
     Pseudo is Projector augmented-wave, Zval =  1.0
     Generated using 'atomic' code by A. Dal Corso  v.7.2
     Shape of augmentation charge: PSQ
     Using radial grid of  929 points,  2 beta functions with:
                l(1) =   0
                l(2) =   0
     Q(r) pseudized with 0 coefficients

     atomic species   valence    mass     pseudopotential
        Mo            14.00    95.95000     Mo( 1.00)
        S              6.00    32.06000     S ( 1.00)
        H              1.00     1.00800     H ( 1.00)

     No symmetry found

   Cartesian axes

     site n.     atom                  positions (alat units)
         1           Mo  tau(   1) = (   0.1249983   0.2165050   0.4823527  )
         2           Mo  tau(   2) = (   0.1250004   0.0721694  -0.4825273  )
         3           Mo  tau(   3) = (  -0.0000019   0.1443377  -0.0000751  )
         4           S   tau(   4) = (   0.0000004   0.0000006  -0.6064556  )
         5           S   tau(   5) = (   0.1249982   0.0721692  -0.1241671  )
         6           S   tau(   6) = (  -0.0000016   0.1443364   0.3582431  )
         7           S   tau(   7) = (   0.0000004   0.0000005  -0.3584711  )
         8           S   tau(   8) = (   0.1249982   0.0721691   0.1241550  )
         9           S   tau(   9) = (  -0.0000015   0.1443364   0.6067201  )
        10           Mo  tau(  10) = (  -0.0000021   0.4330115   0.4823527  )
        11           Mo  tau(  11) = (   0.0000001   0.2886759  -0.4825273  )
        12           Mo  tau(  12) = (  -0.1250009   0.3608432  -0.0000744  )
        13           S   tau(  13) = (  -0.1249999   0.2165071  -0.6064556  )
        14           S   tau(  14) = (  -0.0000017   0.2886753  -0.1241667  )
        15           S   tau(  15) = (  -0.1250020   0.3608427   0.3582430  )
        16           S   tau(  16) = (  -0.1249998   0.2165070  -0.3584711  )
        17           S   tau(  17) = (  -0.0000017   0.2886752   0.1241551  )
        18           S   tau(  18) = (  -0.1250020   0.3608428   0.6067200  )
        19           Mo  tau(  19) = (  -0.1250025   0.6495181   0.4823527  )
        20           Mo  tau(  20) = (  -0.1250002   0.5051824  -0.4825273  )
        21           Mo  tau(  21) = (  -0.2500019   0.5773502  -0.0000747  )
        22           S   tau(  22) = (  -0.2500002   0.4330136  -0.6064556  )
        23           S   tau(  23) = (  -0.1250019   0.5051815  -0.1241659  )
        24           S   tau(  24) = (  -0.2500023   0.5773492   0.3582430  )
        25           S   tau(  25) = (  -0.2500001   0.4330135  -0.3584711  )
        26           S   tau(  26) = (  -0.1250021   0.5051816   0.1241548  )
        27           S   tau(  27) = (  -0.2500023   0.5773492   0.6067201  )
        28           Mo  tau(  28) = (   0.2499985  -0.0000014   0.4823528  )
        29           Mo  tau(  29) = (  -0.2500004   0.7216889  -0.4825273  )
        30           Mo  tau(  30) = (  -0.3750035   0.7938587  -0.0000751  )
        31           S   tau(  31) = (  -0.3750004   0.6495201  -0.6064556  )
        32           S   tau(  32) = (  -0.2500024   0.7216883  -0.1241659  )
        33           S   tau(  33) = (  -0.3750023   0.7938557   0.3582430  )
        34           S   tau(  34) = (  -0.3750004   0.6495200  -0.3584711  )
        35           S   tau(  35) = (  -0.2500028   0.7216884   0.1241544  )
        36           S   tau(  36) = (  -0.3750023   0.7938556   0.6067199  )
        37           Mo  tau(  37) = (   0.3749981   0.2165050   0.4823525  )
        38           Mo  tau(  38) = (   0.3750004   0.0721694  -0.4825273  )
        39           Mo  tau(  39) = (   0.2499973   0.1443382  -0.0000750  )
        40           S   tau(  40) = (   0.2500004   0.0000006  -0.6064556  )
        41           S   tau(  41) = (   0.3749982   0.0721689  -0.1241664  )
        42           S   tau(  42) = (   0.2499983   0.1443364   0.3582430  )
        43           S   tau(  43) = (   0.2500004   0.0000005  -0.3584711  )
        44           S   tau(  44) = (   0.3749982   0.0721692   0.1241548  )
        45           S   tau(  45) = (   0.2499984   0.1443363   0.6067201  )
        46           Mo  tau(  46) = (   0.2499981   0.4330115   0.4823527  )
        47           Mo  tau(  47) = (   0.2500001   0.2886759  -0.4825273  )
        48           Mo  tau(  48) = (   0.1249978   0.3608446  -0.0000747  )
        49           S   tau(  49) = (   0.1250001   0.2165071  -0.6064556  )
        50           S   tau(  50) = (   0.2499977   0.2886754  -0.1241668  )
        51           S   tau(  51) = (   0.1249981   0.3608427   0.3582430  )
        52           S   tau(  52) = (   0.1250002   0.2165070  -0.3584711  )
        53           S   tau(  53) = (   0.2499978   0.2886754   0.1241550  )
        54           S   tau(  54) = (   0.1249981   0.3608427   0.6067200  )
        55           Mo  tau(  55) = (   0.1249976   0.6495181   0.4823528  )
        56           Mo  tau(  56) = (   0.1249998   0.5051824  -0.4825273  )
        57           Mo  tau(  57) = (  -0.0000011   0.5773502  -0.0000746  )
        58           S   tau(  58) = (  -0.0000002   0.4330136  -0.6064556  )
        59           S   tau(  59) = (   0.1249978   0.5051816  -0.1241667  )
        60           S   tau(  60) = (  -0.0000023   0.5773491   0.3582431  )
[...]
       131           S   tau( 131) = (   0.6249978   0.5051817  -0.1241660  )
       132           S   tau( 132) = (   0.4999980   0.5773491   0.3582431  )
       133           S   tau( 133) = (   0.4999999   0.4330135  -0.3584711  )
       134           S   tau( 134) = (   0.6249975   0.5051818   0.1241544  )
       135           S   tau( 135) = (   0.4999981   0.5773491   0.6067201  )
       136           Mo  tau( 136) = (  -0.0000012  -0.0000013   0.4823527  )
       137           Mo  tau( 137) = (   0.4999996   0.7216889  -0.4825273  )
       138           Mo  tau( 138) = (   0.3749969   0.7938580  -0.0000749  )
       139           S   tau( 139) = (   0.3749996   0.6495201  -0.6064556  )
       140           S   tau( 140) = (   0.4999973   0.7216884  -0.1241666  )
       141           S   tau( 141) = (   0.3749976   0.7938558   0.3582430  )
       142           S   tau( 142) = (   0.3749996   0.6495200  -0.3584711  )
       143           S   tau( 143) = (   0.4999974   0.7216884   0.1241546  )
       144           S   tau( 144) = (   0.3749976   0.7938557   0.6067202  )
       145           H   tau( 145) = (   0.1250067   0.3608311   0.7097718  )

     DFT-D3 Dispersion Correction (3-body terms):
       Reference C6 values for interpolation:

         atom   Coordination number   C6
         H          0.912             6.05
         H          0.000            15.18
         S          0.000           268.01
         S          0.995           261.99
         S          1.990           251.62
         Mo         0.000          1691.79
         Mo         1.942          1004.01
         Mo        11.056           674.22

       Values used:

         atom   Coordination number  R0_AB[au]  C6      C8
         Mo        10.188            3.547    674.22  77634.20
         Mo        10.189            3.547    674.22  77634.20
         Mo        10.201            3.547    674.22  77634.20
         S          3.753            3.128    251.62  12327.25
         S          3.858            3.128    251.62  12327.25
         S          3.857            3.128    251.62  12327.25
[...]
     atom   13 type  2   force =     0.00000000    0.00000000    0.00000000
     atom   14 type  2   force =    -0.00000591   -0.00000273    0.00000205
     atom   15 type  2   force =     0.00000504   -0.00000336    0.00000046
     atom   16 type  2   force =     0.00000000    0.00000000    0.00000000
     atom   17 type  2   force =    -0.00000448   -0.00000111    0.00001014
     atom   18 type  2   force =    -0.00000749   -0.00000901    0.00002130
     atom   19 type  1   force =     0.00002289    0.00001665    0.00003449
     atom   20 type  1   force =     0.00000000    0.00000000    0.00000000
     atom   21 type  1   force =     0.00001439    0.00000133    0.00000269
     atom   22 type  2   force =     0.00000000    0.00000000    0.00000000
     atom   23 type  2   force =    -0.00000008    0.00000002    0.00000633
     atom   24 type  2   force =     0.00001699   -0.00000182    0.00000978
     atom   25 type  2   force =     0.00000000    0.00000000    0.00000000
     atom   26 type  2   force =     0.00000232   -0.00000155    0.00000662
     atom   27 type  2   force =     0.00001703   -0.00000164    0.00001884
     atom   28 type  1   force =     0.00002911    0.00000573    0.00003678
     atom   29 type  1   force =     0.00000000    0.00000000    0.00000000
     atom   30 type  1   force =     0.00000768    0.00000774    0.00000137
     atom   31 type  2   force =     0.00000000    0.00000000    0.00000000
     atom   32 type  2   force =     0.00000403    0.00000151    0.00000214
     atom   33 type  2   force =     0.00000816    0.00001272    0.00000820
     atom   34 type  2   force =     0.00000000    0.00000000    0.00000000
     atom   35 type  2   force =     0.00000736    0.00000273    0.00000078
     atom   36 type  2   force =     0.00000745    0.00001358    0.00002124
     atom   37 type  1   force =     0.00002068   -0.00005563    0.00003636
     atom   38 type  1   force =     0.00000000    0.00000000    0.00000000
     atom   39 type  1   force =     0.00000547   -0.00001788    0.00000926
     atom   40 type  2   force =     0.00000000    0.00000000    0.00000000
     atom   41 type  2   force =     0.00000397   -0.00000332    0.00000448
     atom   42 type  2   force =    -0.00000345   -0.00000542   -0.00000367
     atom   43 type  2   force =     0.00000000    0.00000000    0.00000000
     atom   44 type  2   force =     0.00000532   -0.00000348    0.00000297
     atom   45 type  2   force =     0.00000756   -0.00001370    0.00002720
     atom   46 type  1   force =    -0.00007880   -0.00004051    0.00000036
     atom   47 type  1   force =     0.00000000    0.00000000    0.00000000
     atom   48 type  1   force =    -0.00001593   -0.00000672   -0.00000494
     atom   49 type  2   force =     0.00000000    0.00000000    0.00000000
     atom   50 type  2   force =     0.00000003   -0.00000559   -0.00000225
     atom   51 type  2   force =    -0.00001860   -0.00000812    0.00000354
     atom   52 type  2   force =     0.00000000    0.00000000    0.00000000
     atom   53 type  2   force =    -0.00000484   -0.00000640    0.00000935
     atom   54 type  2   force =    -0.00001720   -0.00000745    0.00000884
     atom   55 type  1   force =    -0.00004232    0.00004257    0.00004091
     atom   56 type  1   force =     0.00000000    0.00000000    0.00000000
     atom   57 type  1   force =    -0.00001391    0.00001411    0.00001051
     atom   58 type  2   force =     0.00000000    0.00000000    0.00000000
     atom   59 type  2   force =    -0.00000537    0.00000366   -0.00000124
     atom   60 type  2   force =    -0.00000803   -0.00000140   -0.00000140
[...]
     atom  131 type  2   force =     0.00000546   -0.00000139   -0.00000149
     atom  132 type  2   force =     0.00000700    0.00000265   -0.00000413
     atom  133 type  2   force =     0.00000000    0.00000000    0.00000000
     atom  134 type  2   force =     0.00000878   -0.00000375    0.00000120
     atom  135 type  2   force =     0.00000458    0.00000223    0.00003570
     atom  136 type  1   force =    -0.00001080    0.00003992    0.00003650
     atom  137 type  1   force =     0.00000000    0.00000000    0.00000000
     atom  138 type  1   force =    -0.00000644    0.00001825   -0.00000354
     atom  139 type  2   force =     0.00000000    0.00000000    0.00000000
     atom  140 type  2   force =     0.00000107    0.00000486   -0.00000189
     atom  141 type  2   force =    -0.00000499    0.00001734    0.00000154
     atom  142 type  2   force =     0.00000000    0.00000000    0.00000000
     atom  143 type  2   force =     0.00000095    0.00000810    0.00000077
     atom  144 type  2   force =    -0.00000451    0.00001577    0.00002858
     atom  145 type  3   force =    -0.00000122   -0.00000053    0.00000091

     DFT-D3 dispersion contribution to forces:
     atom    1 type  1   force =     0.00000001    0.00008035   -0.00247801
     atom    2 type  1   force =    -0.00000000    0.00000037    0.00260459
     atom    3 type  1   force =     0.00000364    0.00000346   -0.00002795
     atom    4 type  2   force =     0.00000002   -0.00000001    0.00441239
     atom    5 type  2   force =     0.00000000    0.00000108   -0.00004703
     atom    6 type  2   force =     0.00000134    0.00000500   -0.00019407
     atom    7 type  2   force =     0.00000029    0.00000033    0.00023451
     atom    8 type  2   force =     0.00000000    0.00000017    0.00008717
     atom    9 type  2   force =     0.00009506    0.00013703   -0.00434374
     atom   10 type  1   force =     0.00006961   -0.00004020   -0.00247801
     atom   11 type  1   force =     0.00000045    0.00000026    0.00260520
     atom   12 type  1   force =     0.00000482    0.00000143   -0.00002795
     atom   13 type  2   force =     0.00000001    0.00000001    0.00441242
     atom   14 type  2   force =    -0.00000047   -0.00000028   -0.00004563
     atom   15 type  2   force =     0.00000499   -0.00000136   -0.00019407
     atom   16 type  2   force =     0.00000064    0.00000037    0.00023466
     atom   17 type  2   force =    -0.00000033   -0.00000019    0.00008101
     atom   18 type  2   force =     0.00016621    0.00001378   -0.00434375
     atom   19 type  1   force =    -0.00000606   -0.00001309   -0.00262559
     atom   20 type  1   force =     0.00000032   -0.00000019    0.00260459
     atom   21 type  1   force =    -0.00000085    0.00000049   -0.00002486
     atom   22 type  2   force =     0.00000000    0.00000002    0.00441239
     atom   23 type  2   force =     0.00000094   -0.00000054   -0.00004702
     atom   24 type  2   force =    -0.00000244    0.00000141   -0.00019931
     atom   25 type  2   force =     0.00000044    0.00000009    0.00023451
     atom   26 type  2   force =     0.00000014   -0.00000009    0.00008716
     atom   27 type  2   force =     0.00000810   -0.00000468   -0.00441656
     atom   28 type  1   force =    -0.00001438    0.00000133   -0.00262558
     atom   29 type  1   force =    -0.00000008   -0.00000005    0.00260422
     atom   30 type  1   force =    -0.00000000   -0.00000098   -0.00002487
     atom   31 type  2   force =     0.00000000    0.00000000    0.00441241
     atom   32 type  2   force =     0.00000014    0.00000008   -0.00004728
     atom   33 type  2   force =     0.00000000   -0.00000280   -0.00019932
     atom   34 type  2   force =    -0.00000000   -0.00000000    0.00023471
     atom   35 type  2   force =    -0.00000286   -0.00000165    0.00009051
     atom   36 type  2   force =    -0.00000000    0.00000937   -0.00441655
     atom   37 type  1   force =    -0.00005474    0.00003160   -0.00259343
     atom   38 type  1   force =    -0.00000015    0.00000014    0.00260419
     atom   39 type  1   force =    -0.00000364    0.00000346   -0.00002795
     atom   40 type  2   force =    -0.00000002   -0.00000001    0.00441239
     atom   41 type  2   force =    -0.00000109    0.00000004   -0.00004831
     atom   42 type  2   force =    -0.00000133    0.00000500   -0.00019406
     atom   43 type  2   force =    -0.00000030    0.00000033    0.00023451
     atom   44 type  2   force =    -0.00000374   -0.00000113    0.00008456
     atom   45 type  2   force =    -0.00009504    0.00013703   -0.00434373
     atom   46 type  1   force =    -0.00006959   -0.00004020   -0.00247801
     atom   47 type  1   force =    -0.00000045    0.00000026    0.00260520
     atom   48 type  1   force =    -0.00000000   -0.00000000   -0.00002365
     atom   49 type  2   force =     0.00000000    0.00000005    0.00441254
     atom   50 type  2   force =     0.00000048   -0.00000028   -0.00004563
     atom   51 type  2   force =     0.00000001   -0.00000001   -0.00018516
     atom   52 type  2   force =    -0.00000000    0.00000053    0.00023492
     atom   53 type  2   force =     0.00000033   -0.00000019    0.00008101
     atom   54 type  2   force =    -0.00000001    0.00000002   -0.00438624
     atom   55 type  1   force =     0.00000000   -0.00006320   -0.00259345
     atom   56 type  1   force =    -0.00000000   -0.00000052    0.00260520
     atom   57 type  1   force =     0.00000118   -0.00000489   -0.00002795
     atom   58 type  2   force =     0.00000005   -0.00000003    0.00441254
     atom   59 type  2   force =     0.00000001    0.00000055   -0.00004563
     atom   60 type  2   force =     0.00000367   -0.00000364   -0.00019408
[...]
     atom  131 type  2   force =     0.00000000   -0.00000016   -0.00004728
     atom  132 type  2   force =     0.00000244    0.00000141   -0.00019931
     atom  133 type  2   force =    -0.00000044    0.00000009    0.00023451
     atom  134 type  2   force =     0.00000000    0.00000330    0.00009050
     atom  135 type  2   force =    -0.00000811   -0.00000468   -0.00441656
     atom  136 type  1   force =     0.00001438    0.00000133   -0.00262558
     atom  137 type  1   force =     0.00000008   -0.00000005    0.00260422
     atom  138 type  1   force =     0.00000152   -0.00000088   -0.00002773
     atom  139 type  2   force =     0.00000002   -0.00000001    0.00441239
     atom  140 type  2   force =    -0.00000013    0.00000008   -0.00004728
     atom  141 type  2   force =     0.00000666   -0.00000384   -0.00019669
     atom  142 type  2   force =    -0.00000014   -0.00000042    0.00023451
     atom  143 type  2   force =     0.00000287   -0.00000165    0.00009051
     atom  144 type  2   force =     0.00000747   -0.00000431   -0.00441679
     atom  145 type  3   force =    -0.00000000    0.00000000   -0.00138497

     Total force =     0.002401     Total SCF correction =     0.000275
     SCF correction compared to forces is large: reduce conv_thr to get better values
     Energy error            =      1.1E-05 Ry
     Gradient error          =      9.6E-04 Ry/Bohr

     bfgs converged in   9 scf cycles and   8 bfgs steps
     (criteria: energy <  1.0E-04 Ry, force <  1.0E-03 Ry/Bohr)

     End of BFGS Geometry Optimization

     Final energy             =  -23846.2624579630 Ry

     File ./outdir/pwscf.bfgs deleted, as requested
Begin final coordinates

ATOMIC_POSITIONS (angstrom)
Mo            1.5768955964        2.7385889763        6.0885467539
Mo            1.5769197498        0.9104407117       -6.0872367793    0   0   0
Mo            0.0005148036        1.8218303080       -0.0012177862
S             0.0000044503        0.0000077495       -7.6506323570    0   0   0
S             1.5768948219        0.9100971309       -1.5664469934
S             0.0059112903        1.8182311936        4.5192000983
S             0.0000053241        0.0000068460       -4.5222282367    0   0   0
S             1.5768938911        0.9106889624        1.5663481262
S            -0.0094592980        1.8074902349        7.6560365497
Mo            0.0063113094        5.4589189663        6.0885507376
Mo            0.0000011799        3.6417399547       -6.0872367793    0   0   0
Mo           -1.5758360579        4.5521471211       -0.0012160315
S            -1.5769141197        2.7313069925       -7.6506323570    0   0   0
S             0.0010869590        3.6423757065       -1.5674448995
S            -1.5762376872        4.5586058835        4.5192011671
S            -1.5769132459        2.7313060890       -4.5222282367    0   0   0
S             0.0004164748        3.6419856324        1.5680310282
S            -1.5932345171        4.5506579800        7.6560413807
Mo           -1.5860762492        8.1997831677        6.0845696236
Mo           -1.5769173901        6.3730391977       -6.0872367793    0   0   0
Mo           -3.1542886994        7.2837130939       -0.0007382871
S            -3.1538326896        5.4626062355       -7.6506323570    0   0   0
S            -1.5772321319        6.3731999833       -1.5664468647
S            -3.1565994273        7.2850294850        4.5161408662
S            -3.1538318159        5.4626053320       -4.5222282367    0   0   0
S            -1.5767196521        6.3729027662        1.5663518549
S            -3.1585762228        7.2861702631        7.6557303920
Mo            3.1543511096       -0.0108678954        6.0845696817
Mo           -3.1538359601        9.1043384407       -6.0872367793    0   0   0
Mo           -4.7307773559       10.0142680800       -0.0007386411
S            -4.7307512596        8.1939054785       -7.6506323570    0   0   0
S            -3.1537775167        9.1043756686       -1.5665819879
S            -4.7307778335       10.0115799880        4.5161437208
S            -4.7307503859        8.1939045750       -4.5222282367    0   0   0
S            -3.1539967360        9.1042506031        1.5666338807
S            -4.7307755927       10.0092980457        7.6557301341
Mo            4.7293425129        2.7320776853        6.0824850652
Mo            4.7307503218        0.9104407117       -6.0872367793    0   0   0
Mo            3.1532715437        1.8218305208       -0.0012172525
S             3.1538350223        0.0000077495       -7.6506323570    0   0   0
S             4.7306510194        0.9107423644       -1.5663089698
S             3.1478742981        1.8182298819        4.5192012104
S             3.1538358961        0.0000068460       -4.5222282367    0   0   0
S             4.7302487639        0.9109272334        1.5659761006
S             3.1632470061        1.8074903325        7.6560331153
Mo            3.1474763062        5.4589199616        6.0885489736
Mo            3.1538317519        3.6417399547       -6.0872367793    0   0   0
Mo            1.5768909474        4.5521630673        0.0005108845
S             1.5769164523        2.7313069925       -7.6506323570    0   0   0
S             3.1526942119        3.6423744030       -1.5674458595
S             1.5768929518        4.5521474943        4.4953288628
S             1.5769173261        2.7313060890       -4.5222282367    0   0   0
S             3.1533644268        3.6419865991        1.5680305179
S             1.5769026894        4.5521319049        7.6115872347
Mo            1.5768876093        8.1922851175        6.0824887437
Mo            1.5769131819        6.3730391977       -6.0872367793    0   0   0
Mo            0.0005386762        7.2825181343       -0.0012158038
S            -0.0000021176        5.4626062355       -7.6506323570    0   0   0
S             1.5768864886        6.3717472926       -1.5674452907
S            -0.0052670817        7.2796120550        4.5192010998
[...]
S             7.8845500490        6.3729363703       -1.5665825040
S             6.3103735768        7.2850305132        4.5161414183
S             6.3076599001        5.4626053320       -4.5222282367    0   0   0
S             7.8845479614        6.3731886634        1.5666348710
S             6.3123501691        7.2861683742        7.6557306872
Mo           -0.0005570887       -0.0108681261        6.0845721075
Mo            6.3076557559        9.1043384407       -6.0872367793    0   0   0
Mo            4.7307410321       10.0147489411       -0.0004707891
S             4.7307404564        8.1939054785       -7.6506323570    0   0   0
S             6.3075485991        9.1043761777       -1.5665838246
S             4.7303895266       10.0149337777        4.5141296361
S             4.7307413301        8.1939045750       -4.5222282367    0   0   0
S             6.3077642527        9.1042505693        1.5666310237
S             4.7284547798       10.0160509553        7.6570643277
H             1.5770079693        4.5519928102        9.0119375947
End final coordinates

     Writing all to output data dir ./outdir/pwscf.save/

     General routines

     Parallel routines

   This run was terminated on:   4:39:49  14Aug2023

   JOB DONE.
Application 11036047 resources: utime ~1673470s, stime ~18486s, Rss ~2366832, inblocks ~0, outblocks ~33536896