     Program PWSCF v.7.2 starts on  3Nov2023 at 18:11: 7

     Waiting for input...
     Reading input from standard input
Warning: card &CELL ignored
Warning: card / ignored

     Current dimensions of program PWSCF are:
     Max number of different atomic species (ntypx) = 10
     Max number of k-points (npk) =  40000
     Max angular momentum in pseudopotentials (lmaxx) =  4
     file Mo.pbe-spn-kjpaw_psl.1.0.0.UPF: wavefunction(s)  4S 4D renormalized
     file S.pbe-n-kjpaw_psl.1.0.0.UPF: wavefunction(s)  3S 3P renormalized
     file Pd.pbe-spn-kjpaw_psl.1.0.0.UPF: wavefunction(s)  4S 5S 4D renormalized

     R & G space division:  proc/nbgrp/npool/nimage =      36
     Subspace diagonalization in iterative solution of the eigenvalue problem:
     one sub-group per band group will be used

     Using Slab Decomposition

     bravais-lattice index     =            0
     lattice parameter (alat)  =      23.8395  a.u.
     unit-cell volume          =   28182.8498 (a.u.)^3
     number of atoms/cell      =          147
     number of atomic types    =            3
     number of electrons       =      1302.00
     number of Kohn-Sham states=          781
     kinetic-energy cutoff     =      77.0000  Ry
     charge density cutoff     =     539.0000  Ry
     scf convergence threshold =      1.0E-06
     mixing beta               =       0.2000
     number of iterations used =            8  plain     mixing
     energy convergence thresh.=      1.0E-04
     force convergence thresh. =      1.0E-03
     Exchange-correlation= SLA  PW   PBX  PBC
                           (   1   4   3   4   0   0   0)
     nstep                     =         1000

     Effective Screening Medium Method
     Boundary Conditions: Vacuum-Slab-Vacuum
     total charge in unit cell        =   0.0000
     grid points for fit at edges     =        4

     celldm(1)=  23.839504  celldm(2)=   0.000000  celldm(3)=   0.000000
     celldm(4)=   0.000000  celldm(5)=   0.000000  celldm(6)=   0.000000

     crystal axes: (cart. coord. in units of alat)
               a(1) = (   1.000000   0.000000   0.000000 )
               a(2) = (  -0.500001   0.866026   0.000000 )
               a(3) = (   0.000000   0.000000   2.401941 )

     reciprocal axes: (cart. coord. in units 2 pi/alat)
               b(1) = (  1.000000  0.577351  0.000000 )
               b(2) = (  0.000000  1.154700  0.000000 )
               b(3) = (  0.000000  0.000000  0.416330 )

     PseudoPot. # 1 for Mo read from file:
     ./pseudo/Mo.pbe-spn-kjpaw_psl.1.0.0.UPF
     MD5 check sum: 317bf72632116215fd98f72de1686f13
     Pseudo is Projector augmented-wave + core cor, Zval = 14.0
     Generated using 'atomic' code by A. Dal Corso  v.7.2
     Shape of augmentation charge: PSQ
     Using radial grid of 1229 points,  6 beta functions with:
                l(1) =   0
                l(2) =   0
                l(3) =   1
                l(4) =   1
                l(5) =   2
                l(6) =   2
     Q(r) pseudized with 0 coefficients

     PseudoPot. # 2 for S  read from file:
     ./pseudo/S.pbe-n-kjpaw_psl.1.0.0.UPF
     MD5 check sum: 8b7b5302570d38d5e87fed6a1065abda
     Pseudo is Projector augmented-wave + core cor, Zval =  6.0
     Generated using 'atomic' code by A. Dal Corso  v.7.2
     Shape of augmentation charge: PSQ
     Using radial grid of 1151 points,  6 beta functions with:
                l(1) =   0
                l(2) =   0
                l(3) =   1
                l(4) =   1
                l(5) =   2
                l(6) =   2
     Q(r) pseudized with 0 coefficients

     PseudoPot. # 3 for Pd read from file:
     ./pseudo/Pd.pbe-spn-kjpaw_psl.1.0.0.UPF
     MD5 check sum: a60571a671f2502b8a6a4569d20a6edb
     Pseudo is Projector augmented-wave + core cor, Zval = 18.0
     Generated using 'atomic' code by A. Dal Corso  v.7.2
     Shape of augmentation charge: PSQ
     Using radial grid of 1235 points,  6 beta functions with:
                l(1) =   0
                l(2) =   0
                l(3) =   1
                l(4) =   1
                l(5) =   2
                l(6) =   2
     Q(r) pseudized with 0 coefficients

     atomic species   valence    mass     pseudopotential
        Mo            14.00    95.95000     Mo( 1.00)
        S              6.00    32.06000     S ( 1.00)
        Pd            18.00   106.42000     Pd( 1.00)

     No symmetry found

   Cartesian axes

     site n.     atom                  positions (alat units)
         1           Mo  tau(   1) = (   0.1248625   0.2131281   0.4810783  )
         2           Mo  tau(   2) = (   0.1250004   0.0721694  -0.4825273  )
         3           Mo  tau(   3) = (  -0.0000005   0.1443526  -0.0000490  )
         4           S   tau(   4) = (   0.0000004   0.0000006  -0.6064556  )
         5           S   tau(   5) = (   0.1249809   0.0722325  -0.1242083  )
         6           S   tau(   6) = (  -0.0008091   0.1437924   0.3564499  )
         7           S   tau(   7) = (   0.0000004   0.0000005  -0.3584711  )
         8           S   tau(   8) = (   0.1250266   0.0721270   0.1240857  )
         9           S   tau(   9) = (  -0.0005942   0.1424836   0.6054838  )
        10           Mo  tau(  10) = (  -0.0011099   0.4328730   0.4866737  )
        11           Mo  tau(  11) = (   0.0000001   0.2886759  -0.4825273  )
        12           Mo  tau(  12) = (  -0.1249710   0.3608625  -0.0000153  )
        13           S   tau(  13) = (  -0.1249999   0.2165071  -0.6064556  )
        14           S   tau(  14) = (   0.0000009   0.2886909  -0.1241159  )
        15           S   tau(  15) = (  -0.1236884   0.3618446   0.3606188  )
        16           S   tau(  16) = (  -0.1249998   0.2165070  -0.3584711  )
        17           S   tau(  17) = (   0.0000530   0.2887092   0.1242638  )
        18           S   tau(  18) = (  -0.1316249   0.3573130   0.6109420  )
        19           Mo  tau(  19) = (  -0.1257401   0.6504248   0.4820927  )
        20           Mo  tau(  20) = (  -0.1250002   0.5051824  -0.4825273  )
        21           Mo  tau(  21) = (  -0.2499958   0.5773353  -0.0001714  )
        22           S   tau(  22) = (  -0.2500002   0.4330136  -0.6064556  )
        23           S   tau(  23) = (  -0.1249719   0.5051311  -0.1241932  )
        24           S   tau(  24) = (  -0.2500164   0.5770675   0.3576049  )
        25           S   tau(  25) = (  -0.2500001   0.4330135  -0.3584711  )
        26           S   tau(  26) = (  -0.1250100   0.5052346   0.1241515  )
        27           S   tau(  27) = (  -0.2503695   0.5776584   0.6061514  )
        28           Mo  tau(  28) = (   0.2502170  -0.0003953   0.4806411  )
        29           Mo  tau(  29) = (  -0.2500004   0.7216889  -0.4825273  )
        30           Mo  tau(  30) = (  -0.3749978   0.7938641  -0.0002041  )
        31           S   tau(  31) = (  -0.3750004   0.6495201  -0.6064556  )
        32           S   tau(  32) = (  -0.2499890   0.7216755  -0.1242803  )
        33           S   tau(  33) = (  -0.3749740   0.7932749   0.3566586  )
        34           S   tau(  34) = (  -0.3750004   0.6495200  -0.3584711  )
        35           S   tau(  35) = (  -0.2500089   0.7216778   0.1239952  )
        36           S   tau(  36) = (  -0.3749998   0.7939174   0.6051309  )
        37           Mo  tau(  37) = (   0.3753608   0.2157704   0.4822604  )
        38           Mo  tau(  38) = (   0.3750004   0.0721694  -0.4825273  )
        39           Mo  tau(  39) = (   0.2499960   0.1443611  -0.0001003  )
        40           S   tau(  40) = (   0.2500004   0.0000006  -0.6064556  )
        41           S   tau(  41) = (   0.3750017   0.0721909  -0.1242276  )
        42           S   tau(  42) = (   0.2507085   0.1439928   0.3565793  )
        43           S   tau(  43) = (   0.2500004   0.0000005  -0.3584711  )
        44           S   tau(  44) = (   0.3750105   0.0721153   0.1240138  )
        45           S   tau(  45) = (   0.2503040   0.1425185   0.6055897  )
        46           Mo  tau(  46) = (   0.2508295   0.4328457   0.4866827  )
        47           Mo  tau(  47) = (   0.2500001   0.2886759  -0.4825273  )
        48           Mo  tau(  48) = (   0.1249947   0.3608692  -0.0000343  )
        49           S   tau(  49) = (   0.1250001   0.2165071  -0.6064556  )
        50           S   tau(  50) = (   0.2499709   0.2887106  -0.1241515  )
        51           S   tau(  51) = (   0.1248475   0.3620695   0.3632119  )
        52           S   tau(  52) = (   0.1250002   0.2165070  -0.3584711  )
        53           S   tau(  53) = (   0.2499461   0.2887051   0.1242364  )
        54           S   tau(  54) = (   0.1248217   0.3502704   0.6102012  )
        55           Mo  tau(  55) = (   0.1249300   0.6515066   0.4828014  )
        56           Mo  tau(  56) = (   0.1249998   0.5051824  -0.4825273  )
        57           Mo  tau(  57) = (   0.0000129   0.5773133  -0.0000993  )
        58           S   tau(  58) = (  -0.0000002   0.4330136  -0.6064556  )
        59           S   tau(  59) = (   0.1250046   0.5051576  -0.1241791  )
        60           S   tau(  60) = (   0.0000991   0.5758547   0.3610070  )
[...]
       133           S   tau( 133) = (   0.4999999   0.4330135  -0.3584711  )
       134           S   tau( 134) = (   0.6249981   0.5052504   0.1240736  )
       135           S   tau( 135) = (   0.5003122   0.5776902   0.6062470  )
       136           Mo  tau( 136) = (  -0.0002805  -0.0004824   0.4806096  )
       137           Mo  tau( 137) = (   0.4999996   0.7216889  -0.4825273  )
       138           Mo  tau( 138) = (   0.3749756   0.7938309  -0.0001159  )
       139           S   tau( 139) = (   0.3749996   0.6495201  -0.6064556  )
       140           S   tau( 140) = (   0.4999628   0.7216864  -0.1242513  )
       141           S   tau( 141) = (   0.3747357   0.7932164   0.3566619  )
       142           S   tau( 142) = (   0.3749996   0.6495200  -0.3584711  )
       143           S   tau( 143) = (   0.5000348   0.7216656   0.1240143  )
       144           S   tau( 144) = (   0.3751928   0.7949639   0.6056664  )
       145           Pd  tau( 145) = (   0.2448410   0.4348549   0.7173028  )
       146           Pd  tau( 146) = (   0.0055759   0.4353384   0.7172832  )
       147           Pd  tau( 147) = (   0.3753372   0.2157694   0.7264182  )

     DFT-D3 Dispersion Correction (3-body terms):
       Reference C6 values for interpolation:

         atom   Coordination number   C6
         S          0.000           268.01
         S          0.995           261.99
         S          1.990           251.62
         Mo         0.000          1691.79
         Mo         1.942          1004.01
         Mo        11.056           674.22
         Pd         0.000          1217.01
         Pd         1.863           573.90
         Pd         5.710           531.75

       Values used:

         atom   Coordination number  R0_AB[au]  C6      C8
         Mo        10.171            3.547    674.22  77634.20
         Mo        10.189            3.547    674.22  77634.20
         Mo        10.201            3.547    674.22  77634.20
         S          3.753            3.128    251.62  12327.25
[...]
     atom   12 type  1   force =    -0.00000246    0.00000551   -0.00000363
     atom   13 type  2   force =     0.00000000    0.00000000    0.00000000
     atom   14 type  2   force =    -0.00000295    0.00000316    0.00000197
     atom   15 type  2   force =     0.00000327    0.00000493    0.00000214
     atom   16 type  2   force =     0.00000000    0.00000000    0.00000000
     atom   17 type  2   force =    -0.00000206    0.00000258    0.00000813
     atom   18 type  2   force =     0.00000199    0.00000443   -0.00000029
     atom   19 type  1   force =     0.00000551   -0.00000615    0.00001304
     atom   20 type  1   force =     0.00000000    0.00000000    0.00000000
     atom   21 type  1   force =     0.00000626    0.00000273   -0.00000136
     atom   22 type  2   force =     0.00000000    0.00000000    0.00000000
     atom   23 type  2   force =     0.00000077    0.00000194    0.00000570
     atom   24 type  2   force =     0.00000617   -0.00000409   -0.00000198
     atom   25 type  2   force =     0.00000000    0.00000000    0.00000000
     atom   26 type  2   force =    -0.00000087    0.00000345    0.00000066
     atom   27 type  2   force =     0.00001276   -0.00000493    0.00000310
     atom   28 type  1   force =     0.00002068    0.00001757    0.00001799
     atom   29 type  1   force =     0.00000000    0.00000000    0.00000000
     atom   30 type  1   force =     0.00000154   -0.00000555   -0.00000208
     atom   31 type  2   force =     0.00000000    0.00000000    0.00000000
     atom   32 type  2   force =     0.00000440   -0.00000211   -0.00000241
     atom   33 type  2   force =     0.00000157   -0.00000191   -0.00000696
     atom   34 type  2   force =     0.00000000    0.00000000    0.00000000
     atom   35 type  2   force =     0.00000016   -0.00000152   -0.00000608
     atom   36 type  2   force =     0.00000418    0.00000314    0.00000558
     atom   37 type  1   force =    -0.00001038   -0.00001468    0.00001570
     atom   38 type  1   force =     0.00000000    0.00000000    0.00000000
     atom   39 type  1   force =     0.00000102   -0.00000789   -0.00000246
     atom   40 type  2   force =     0.00000000    0.00000000    0.00000000
     atom   41 type  2   force =     0.00000149   -0.00000244   -0.00000142
     atom   42 type  2   force =    -0.00000484    0.00000330   -0.00000238
     atom   43 type  2   force =     0.00000000    0.00000000    0.00000000
     atom   44 type  2   force =    -0.00000038   -0.00000395   -0.00000373
     atom   45 type  2   force =     0.00000673    0.00000198   -0.00000310
     atom   46 type  1   force =    -0.00003138   -0.00001971    0.00003523
     atom   47 type  1   force =     0.00000000    0.00000000    0.00000000
     atom   48 type  1   force =    -0.00000730    0.00000777    0.00000136
     atom   49 type  2   force =     0.00000000    0.00000000    0.00000000
     atom   50 type  2   force =    -0.00000269    0.00000142   -0.00000290
     atom   51 type  2   force =    -0.00000236    0.00000476    0.00000514
     atom   52 type  2   force =     0.00000000    0.00000000    0.00000000
     atom   53 type  2   force =    -0.00000260    0.00000305    0.00000650
     atom   54 type  2   force =    -0.00000384    0.00000562   -0.00000987
     atom   55 type  1   force =    -0.00001937   -0.00000533    0.00000555
     atom   56 type  1   force =     0.00000000    0.00000000    0.00000000
     atom   57 type  1   force =    -0.00000541    0.00000656   -0.00000215
     atom   58 type  2   force =     0.00000000    0.00000000    0.00000000
     atom   59 type  2   force =    -0.00000381    0.00000218    0.00000279
     atom   60 type  2   force =     0.00000033   -0.00000591    0.00000158
[...]
     atom  133 type  2   force =     0.00000000    0.00000000    0.00000000
     atom  134 type  2   force =     0.00000123    0.00000268   -0.00000328
     atom  135 type  2   force =    -0.00000065   -0.00000152    0.00000513
     atom  136 type  1   force =    -0.00000111    0.00001804    0.00002740
     atom  137 type  1   force =     0.00000000    0.00000000    0.00000000
     atom  138 type  1   force =    -0.00000672    0.00000114   -0.00000465
     atom  139 type  2   force =     0.00000000    0.00000000    0.00000000
     atom  140 type  2   force =     0.00000011   -0.00000002   -0.00000463
     atom  141 type  2   force =    -0.00000004   -0.00000309   -0.00000685
     atom  142 type  2   force =     0.00000000    0.00000000    0.00000000
     atom  143 type  2   force =     0.00000184   -0.00000149   -0.00000415
     atom  144 type  2   force =    -0.00000331    0.00000693    0.00000605
     atom  145 type  3   force =     0.00000742    0.00003746   -0.00001734
     atom  146 type  3   force =    -0.00002822    0.00002529   -0.00000370
     atom  147 type  3   force =     0.00003194   -0.00003847   -0.00001077

     DFT-D3 dispersion contribution to forces:
     atom    1 type  1   force =     0.00033402    0.00057625   -0.00147163
     atom    2 type  1   force =    -0.00000004   -0.00000020    0.00260469
     atom    3 type  1   force =    -0.00000991   -0.00001901   -0.00002119
     atom    4 type  2   force =     0.00000001   -0.00000005    0.00441041
     atom    5 type  2   force =    -0.00000061   -0.00000225   -0.00004741
     atom    6 type  2   force =     0.00003078    0.00003309   -0.00001442
     atom    7 type  2   force =     0.00000036   -0.00000018    0.00023726
     atom    8 type  2   force =    -0.00000907   -0.00003318    0.00010799
     atom    9 type  2   force =     0.00048294    0.00081339   -0.00397465
     atom   10 type  1   force =     0.00044068   -0.00006518   -0.00203658
     atom   11 type  1   force =     0.00000001    0.00000030    0.00260480
     atom   12 type  1   force =    -0.00001279   -0.00000711   -0.00003579
     atom   13 type  2   force =    -0.00000002   -0.00000001    0.00441026
     atom   14 type  2   force =    -0.00000058    0.00000040   -0.00005250
     atom   15 type  2   force =     0.00006386    0.00002261    0.00017048
     atom   16 type  2   force =     0.00000029    0.00000067    0.00023712
     atom   17 type  2   force =    -0.00002161   -0.00001777    0.00009073
     atom   18 type  2   force =     0.00041991    0.00011028   -0.00428816
     atom   19 type  1   force =     0.00024845   -0.00023643   -0.00208335
     atom   20 type  1   force =     0.00000004    0.00000020    0.00260540
     atom   21 type  1   force =    -0.00001153    0.00000742   -0.00001334
     atom   22 type  2   force =     0.00000003    0.00000002    0.00441039
     atom   23 type  2   force =    -0.00000073    0.00000154   -0.00005106
     atom   24 type  2   force =     0.00002167   -0.00000011   -0.00010804
     atom   25 type  2   force =     0.00000036    0.00000057    0.00023715
     atom   26 type  2   force =    -0.00002495    0.00001093    0.00009879
     atom   27 type  2   force =     0.00045430   -0.00027770   -0.00415986
     atom   28 type  1   force =     0.00016083    0.00039834   -0.00208884
     atom   29 type  1   force =     0.00000005   -0.00000029    0.00260522
     atom   30 type  1   force =    -0.00000742   -0.00000499    0.00000286
     atom   31 type  2   force =     0.00000000    0.00000006    0.00441053
     atom   32 type  2   force =    -0.00000038   -0.00000115   -0.00004576
     atom   33 type  2   force =    -0.00000342   -0.00000091   -0.00014110
     atom   34 type  2   force =     0.00000043   -0.00000026    0.00023712
     atom   35 type  2   force =    -0.00002003   -0.00000287    0.00010865
     atom   36 type  2   force =     0.00017837    0.00023425   -0.00428067
     atom   37 type  1   force =    -0.00026759    0.00034212   -0.00204431
     atom   38 type  1   force =    -0.00000018   -0.00000033    0.00260434
     atom   39 type  1   force =    -0.00000546   -0.00002013   -0.00004412
     atom   40 type  2   force =    -0.00000000   -0.00000005    0.00441035
     atom   41 type  2   force =    -0.00000129   -0.00000255   -0.00005110
     atom   42 type  2   force =     0.00001861    0.00008618    0.00028099
     atom   43 type  2   force =    -0.00000016   -0.00000052    0.00023716
     atom   44 type  2   force =    -0.00000053   -0.00002771    0.00009414
     atom   45 type  2   force =    -0.00001280    0.00087095   -0.00403904
     atom   46 type  1   force =    -0.00016819   -0.00027911   -0.00172259
     atom   47 type  1   force =    -0.00000024    0.00000019    0.00260448
     atom   48 type  1   force =    -0.00000765   -0.00000549   -0.00007089
     atom   49 type  2   force =     0.00000000   -0.00000002    0.00441012
     atom   50 type  2   force =    -0.00000140   -0.00000006   -0.00005657
     atom   51 type  2   force =     0.00005405    0.00003888    0.00055952
     atom   52 type  2   force =    -0.00000007    0.00000035    0.00023718
     atom   53 type  2   force =    -0.00000621   -0.00001319    0.00008537
     atom   54 type  2   force =     0.00041125   -0.00004965   -0.00405613
     atom   55 type  1   force =     0.00002236   -0.00059935   -0.00179929
     atom   56 type  1   force =    -0.00000022    0.00000013    0.00260517
     atom   57 type  1   force =    -0.00000785    0.00001245   -0.00004631
     atom   58 type  2   force =    -0.00000005    0.00000005    0.00441025
     atom   59 type  2   force =    -0.00000120    0.00000117   -0.00005552
     atom   60 type  2   force =     0.00003164   -0.00008327    0.00022491
[...]
     atom  133 type  2   force =     0.00000005    0.00000050    0.00023705
     atom  134 type  2   force =     0.00000737    0.00002511    0.00010139
     atom  135 type  2   force =    -0.00056501   -0.00055390   -0.00406384
     atom  136 type  1   force =     0.00007806    0.00016251   -0.00238162
     atom  137 type  1   force =     0.00000014   -0.00000015    0.00260488
     atom  138 type  1   force =     0.00000687    0.00000524    0.00000202
     atom  139 type  2   force =     0.00000006    0.00000002    0.00441038
     atom  140 type  2   force =     0.00000102   -0.00000031   -0.00004436
     atom  141 type  2   force =     0.00001651    0.00000827   -0.00014187
     atom  142 type  2   force =    -0.00000009   -0.00000033    0.00023735
     atom  143 type  2   force =     0.00000757    0.00001484    0.00011279
     atom  144 type  2   force =    -0.00010997   -0.00024294   -0.00430448
     atom  145 type  3   force =    -0.00008587   -0.00013726   -0.00628658
     atom  146 type  3   force =     0.00045388   -0.00017531   -0.00627582
     atom  147 type  3   force =    -0.00035297    0.00029406   -0.00626101

     Total force =     0.002229     Total SCF correction =     0.000142
     Energy error            =      1.5E-05 Ry
     Gradient error          =      5.6E-04 Ry/Bohr

     bfgs converged in  23 scf cycles and  22 bfgs steps
     (criteria: energy <  1.0E-04 Ry, force <  1.0E-03 Ry/Bohr)

     End of BFGS Geometry Optimization

     Final energy             =  -25381.0901100147 Ry

     File ./outdir/pwscf.bfgs deleted, as requested
Begin final coordinates

ATOMIC_POSITIONS (angstrom)
Mo            1.5586342931        2.6883772137        6.0674004342
Mo            1.5769197498        0.9104407117       -6.0872367793    0   0   0
Mo           -0.0000274187        1.8208802143       -0.0006836827
S             0.0000044503        0.0000077495       -7.6506323570    0   0   0
S             1.5771167830        0.9111497917       -1.5663562209
S            -0.0156633738        1.8135414271        4.4891080790
S             0.0000053241        0.0000068460       -4.5222282367    0   0   0
S             1.5774120585        0.9102755845        1.5663789524
S            -0.0204696772        1.7965518614        7.6367722189
Mo           -0.0110723267        5.4611318579        6.1294899748
Mo            0.0000011799        3.6417399547       -6.0872367793    0   0   0
Mo           -1.5765197837        4.5521113493       -0.0015459331
S            -1.5769141197        2.7313069925       -7.6506323570    0   0   0
S             0.0003332019        3.6413653709       -1.5664840646
S            -1.5591012015        4.5636382786        4.5431022509
S            -1.5769132459        2.7313060890       -4.5222282367    0   0   0
S             0.0002243645        3.6422167307        1.5666225485
S            -1.6522478815        4.5098818371        7.7024662961
Mo           -1.5841026656        8.2042071226        6.0786002873
Mo           -1.5769173901        6.3730391977       -6.0872367793    0   0   0
Mo           -3.1538419460        7.2832202059       -0.0025122085
S            -3.1538326896        5.4626062355       -7.6506323570    0   0   0
S            -1.5767962218        6.3725221840       -1.5676337460
S            -3.1477843806        7.2791156238        4.5043516400
S            -3.1538318159        5.4626053320       -4.5222282367    0   0   0
S            -1.5767955675        6.3732182658        1.5650327972
S            -3.1586298702        7.2889465883        7.6393539092
Mo            3.1496333551       -0.0194540631        6.0641061196
Mo           -3.1538359601        9.1043384407       -6.0872367793    0   0   0
Mo           -4.7306639053       10.0148949334       -0.0021256010
S            -4.7307512596        8.1939054785       -7.6506323570    0   0   0
S            -3.1536956964        9.1044773449       -1.5676386571
S            -4.7320671453       10.0110493999        4.4888582737
S            -4.7307503859        8.1939045750       -4.5222282367    0   0   0
S            -3.1538603774        9.1037829044        1.5644634592
S            -4.7409564902       10.0037806563        7.6307862000
Mo            4.7322598926        2.7266886893        6.1313387624
Mo            4.7307503218        0.9104407117       -6.0872367793    0   0   0
Mo            3.1540204253        1.8211146160       -0.0003695185
S             3.1538350223        0.0000077495       -7.6506323570    0   0   0
S             4.7308101696        0.9108444329       -1.5662926875
S             3.1781808963        1.8236894443        4.5322286762
S             3.1538358961        0.0000068460       -4.5222282367    0   0   0
S             4.7308575179        0.9096221809        1.5660747096
S             3.0678695829        1.7463994114        7.6770371572
Mo            3.1632766820        5.4778308796        6.1110881276
Mo            3.1538317519        3.6417399547       -6.0872367793    0   0   0
Mo            1.5769420942        4.5521358585       -0.0008663899
S             1.5769164523        2.7313069925       -7.6506323570    0   0   0
S             3.1539957528        3.6416515773       -1.5658551192
S             1.5697398495        4.5617606941        4.5668900568
S             1.5769173261        2.7313060890       -4.5222282367    0   0   0
S             3.1529969799        3.6421533834        1.5678761684
S             1.5983292826        4.4390718548        7.6708045196
Mo            1.5803035471        8.2160969086        6.0861799374
Mo            1.5769131819        6.3730391977       -6.0872367793    0   0   0
Mo            0.0001625387        7.2829782748       -0.0021740336
S            -0.0000021176        5.4626062355       -7.6506323570    0   0   0
S             1.5771731302        6.3724118994       -1.5671130937
S             0.0019789427        7.2661738103        4.5475130726
[...]
S             6.3076599001        5.4626053320       -4.5222282367    0   0   0
S             7.8848377754        6.3736254836        1.5651687415
S             6.3205130614        7.3017345888        7.6362077480
Mo           -0.0058406578       -0.0068744505        6.0582885383
Mo            6.3076557559        9.1043384407       -6.0872367793    0   0   0
Mo            4.7302540891       10.0144667668       -0.0022023918
S             4.7307404564        8.1939054785       -7.6506323570    0   0   0
S             6.3074518412        9.1041408605       -1.5674995898
S             4.7234167330       10.0090167312        4.4965031160
S             4.7307413301        8.1939045750       -4.5222282367    0   0   0
S             6.3075623894        9.1043927140        1.5639779216
S             4.7328765428       10.0224817057        7.6363229788
Pd            3.0998979782        5.4021330810        9.1270687528
Pd            0.1018067464        5.4691898818        9.0433311031
Pd            4.6547486680        2.7915764212        9.0280564553
End final coordinates

     Writing all to output data dir ./outdir/pwscf.save/

     General routines

     Parallel routines

   This run was terminated on:  23:27:30   4Nov2023

   JOB DONE.
Application 11372237 resources: utime ~3745366s, stime ~48199s, Rss ~2377044, inblocks ~0, outblocks ~39522808