     Program PWSCF v.7.3 starts on 30Mar2024 at 22:14:42

     Waiting for input...
     Reading input from standard input
Warning: card &CELL ignored
Warning: card / ignored

     Current dimensions of program PWSCF are:
     Max number of different atomic species (ntypx) = 10
     Max number of k-points (npk) =  40000
     Max angular momentum in pseudopotentials (lmaxx) =  4
     file Mo.pbe-spn-kjpaw_psl.1.0.0.UPF: wavefunction(s)  4S 4D renormalized
     file S.pbe-n-kjpaw_psl.1.0.0.UPF: wavefunction(s)  3S 3P renormalized
     file Pt.pbe-spfn-kjpaw_psl.1.0.0.UPF: wavefunction(s)  5P 4F renormalized
     file Pd.pbe-spn-kjpaw_psl.1.0.0.UPF: wavefunction(s)  4S 5S 4D renormalized

     R & G space division:  proc/nbgrp/npool/nimage =      36
     Subspace diagonalization in iterative solution of the eigenvalue problem:
     one sub-group per band group will be used

     Using Slab Decomposition

     bravais-lattice index     =            0
     lattice parameter (alat)  =      23.8395  a.u.
     unit-cell volume          =   28182.8498 (a.u.)^3
     number of atoms/cell      =          147
     number of atomic types    =            4
     number of electrons       =      1330.00
     number of Kohn-Sham states=          798
     kinetic-energy cutoff     =      77.0000  Ry
     charge density cutoff     =     539.0000  Ry
     scf convergence threshold =      1.0E-06
     mixing beta               =       0.2000
     number of iterations used =            8  plain     mixing
     energy convergence thresh.=      1.0E-04
     force convergence thresh. =      1.0E-03
     Exchange-correlation= SLA  PW   PBX  PBC
                           (   1   4   3   4   0   0   0)
     nstep                     =         1000

     Effective Screening Medium Method
     Boundary Conditions: Vacuum-Slab-Vacuum
     total charge in unit cell        =   0.0000
     grid points for fit at edges     =        4

     celldm(1)=  23.839504  celldm(2)=   0.000000  celldm(3)=   0.000000
     celldm(4)=   0.000000  celldm(5)=   0.000000  celldm(6)=   0.000000

     crystal axes: (cart. coord. in units of alat)
               a(1) = (   1.000000   0.000000   0.000000 )
               a(2) = (  -0.500001   0.866026   0.000000 )
               a(3) = (   0.000000   0.000000   2.401941 )

     reciprocal axes: (cart. coord. in units 2 pi/alat)
               b(1) = (  1.000000  0.577351  0.000000 )
               b(2) = (  0.000000  1.154700  0.000000 )
               b(3) = (  0.000000  0.000000  0.416330 )

     PseudoPot. # 1 for Mo read from file:
     ./pseudo/Mo.pbe-spn-kjpaw_psl.1.0.0.UPF
     MD5 check sum: 317bf72632116215fd98f72de1686f13
     Pseudo is Projector augmented-wave + core cor, Zval = 14.0
     Generated using 'atomic' code by A. Dal Corso  v.7.2
     Shape of augmentation charge: PSQ
     Using radial grid of 1229 points,  6 beta functions with:
                l(1) =   0
                l(2) =   0
                l(3) =   1
                l(4) =   1
                l(5) =   2
                l(6) =   2
     Q(r) pseudized with 0 coefficients

     PseudoPot. # 2 for S  read from file:
     ./pseudo/S.pbe-n-kjpaw_psl.1.0.0.UPF
     MD5 check sum: 8b7b5302570d38d5e87fed6a1065abda
     Pseudo is Projector augmented-wave + core cor, Zval =  6.0
     Generated using 'atomic' code by A. Dal Corso  v.7.2
     Shape of augmentation charge: PSQ
     Using radial grid of 1151 points,  6 beta functions with:
                l(1) =   0
                l(2) =   0
                l(3) =   1
                l(4) =   1
                l(5) =   2
                l(6) =   2
     Q(r) pseudized with 0 coefficients

     PseudoPot. # 3 for Pt read from file:
     ./pseudo/Pt.pbe-spfn-kjpaw_psl.1.0.0.UPF
     MD5 check sum: 620096ebf4e6ebacc94de60fd67efcb5
     Pseudo is Projector augmented-wave + core cor, Zval = 32.0
     Generated using 'atomic' code by A. Dal Corso  v.7.2
     Shape of augmentation charge: PSQ
     Using radial grid of 1277 points,  8 beta functions with:
                l(1) =   0
                l(2) =   0
                l(3) =   1
                l(4) =   1
                l(5) =   2
                l(6) =   2
                l(7) =   3
                l(8) =   3
     Q(r) pseudized with 0 coefficients

     PseudoPot. # 4 for Pd read from file:
     ./pseudo/Pd.pbe-spn-kjpaw_psl.1.0.0.UPF
     MD5 check sum: a60571a671f2502b8a6a4569d20a6edb
     Pseudo is Projector augmented-wave + core cor, Zval = 18.0
     Generated using 'atomic' code by A. Dal Corso  v.7.2
     Shape of augmentation charge: PSQ
     Using radial grid of 1235 points,  6 beta functions with:
                l(1) =   0
                l(2) =   0
                l(3) =   1
                l(4) =   1
                l(5) =   2
                l(6) =   2
     Q(r) pseudized with 0 coefficients

     atomic species   valence    mass     pseudopotential
     Mo               14.00    95.95000     Mo( 1.00)
     S                 6.00    32.06000     S ( 1.00)
     Pt               32.00   195.08400     Pt( 1.00)
     Pd               18.00   106.42000     Pd( 1.00)

     No symmetry found

   Cartesian axes

     site n.     atom                  positions (alat units)
         1        Mo     tau(   1) = (   0.1246074   0.2157200   0.4826345  )
         2        Mo     tau(   2) = (   0.1250004   0.0721694  -0.4825273  )
         3        Mo     tau(   3) = (   0.0000068   0.1443549  -0.0000406  )
         4        S      tau(   4) = (   0.0000004   0.0000006  -0.6064556  )
         5        S      tau(   5) = (   0.1249873   0.0722031  -0.1241756  )
         6        S      tau(   6) = (   0.0000973   0.1450650   0.3573519  )
         7        S      tau(   7) = (   0.0000004   0.0000005  -0.3584711  )
         8        S      tau(   8) = (   0.1249847   0.0720950   0.1240801  )
         9        S      tau(   9) = (  -0.0005301   0.1434694   0.6062599  )
        10        Mo     tau(  10) = (  -0.0009156   0.4330317   0.4832560  )
        11        Mo     tau(  11) = (   0.0000001   0.2886759  -0.4825273  )
        12        Mo     tau(  12) = (  -0.1249829   0.3608507   0.0000027  )
        13        S      tau(  13) = (  -0.1249999   0.2165071  -0.6064556  )
        14        S      tau(  14) = (   0.0000128   0.2886930  -0.1241006  )
        15        S      tau(  15) = (  -0.1248837   0.3612581   0.3580377  )
        16        S      tau(  16) = (  -0.1249998   0.2165070  -0.3584711  )
        17        S      tau(  17) = (   0.0000764   0.2887257   0.1242499  )
        18        S      tau(  18) = (  -0.1253220   0.3603286   0.6073134  )
        19        Mo     tau(  19) = (  -0.1249684   0.6493789   0.4818062  )
        20        Mo     tau(  20) = (  -0.1250002   0.5051824  -0.4825273  )
        21        Mo     tau(  21) = (  -0.2500040   0.5773207  -0.0001409  )
        22        S      tau(  22) = (  -0.2500002   0.4330136  -0.6064556  )
        23        S      tau(  23) = (  -0.1249903   0.5051158  -0.1241917  )
        24        S      tau(  24) = (  -0.2499555   0.5769406   0.3578597  )
        25        S      tau(  25) = (  -0.2500001   0.4330135  -0.3584711  )
        26        S      tau(  26) = (  -0.1249930   0.5052458   0.1241101  )
        27        S      tau(  27) = (  -0.2497899   0.5778453   0.6063597  )
        28        Mo     tau(  28) = (   0.2497834  -0.0005160   0.4806710  )
        29        Mo     tau(  29) = (  -0.2500004   0.7216889  -0.4825273  )
        30        Mo     tau(  30) = (  -0.3750188   0.7938286  -0.0001549  )
        31        S      tau(  31) = (  -0.3750004   0.6495201  -0.6064556  )
        32        S      tau(  32) = (  -0.2500074   0.7216649  -0.1242513  )
        33        S      tau(  33) = (  -0.3752234   0.7935039   0.3566636  )
        34        S      tau(  34) = (  -0.3750004   0.6495200  -0.3584711  )
        35        S      tau(  35) = (  -0.2499996   0.7216607   0.1240200  )
        36        S      tau(  36) = (  -0.3746819   0.7948899   0.6057341  )
        37        Mo     tau(  37) = (   0.3750034   0.2123618   0.4807886  )
        38        Mo     tau(  38) = (   0.3750004   0.0721694  -0.4825273  )
        39        Mo     tau(  39) = (   0.2499981   0.1443415  -0.0000413  )
        40        S      tau(  40) = (   0.2500004   0.0000006  -0.6064556  )
        41        S      tau(  41) = (   0.3750280   0.0722231  -0.1241519  )
        42        S      tau(  42) = (   0.2489233   0.1437373   0.3564531  )
        43        S      tau(  43) = (   0.2500004   0.0000005  -0.3584711  )
        44        S      tau(  44) = (   0.3749877   0.0720947   0.1241383  )
        45        S      tau(  45) = (   0.2497122   0.1423104   0.6055821  )
        46        Mo     tau(  46) = (   0.2490774   0.4329018   0.4862977  )
        47        Mo     tau(  47) = (   0.2500001   0.2886759  -0.4825273  )
        48        Mo     tau(  48) = (   0.1250319   0.3608540  -0.0000126  )
        49        S      tau(  49) = (   0.1250001   0.2165071  -0.6064556  )
        50        S      tau(  50) = (   0.2500259   0.2886851  -0.1240979  )
        51        S      tau(  51) = (   0.1263042   0.3620125   0.3614359  )
        52        S      tau(  52) = (   0.1250002   0.2165070  -0.3584711  )
        53        S      tau(  53) = (   0.2500168   0.2886898   0.1242904  )
        54        S      tau(  54) = (   0.1173694   0.3566575   0.6132890  )
        55        Mo     tau(  55) = (   0.1240062   0.6506471   0.4823696  )
        56        Mo     tau(  56) = (   0.1249998   0.5051824  -0.4825273  )
        57        Mo     tau(  57) = (   0.0000191   0.5773226  -0.0001255  )
        58        S      tau(  58) = (  -0.0000002   0.4330136  -0.6064556  )
        59        S      tau(  59) = (   0.1250359   0.5051398  -0.1241676  )
        60        S      tau(  60) = (   0.0000697   0.5768181   0.3580317  )
[...]
       133        S      tau( 133) = (   0.4999999   0.4330135  -0.3584711  )
       134        S      tau( 134) = (   0.6250095   0.5052263   0.1241915  )
       135        S      tau( 135) = (   0.5006407   0.5846211   0.6091832  )
       136        Mo     tau( 136) = (   0.0000410   0.0004185   0.4809769  )
       137        Mo     tau( 137) = (   0.4999996   0.7216889  -0.4825273  )
       138        Mo     tau( 138) = (   0.3750036   0.7938273  -0.0000272  )
       139        S      tau( 139) = (   0.3749996   0.6495201  -0.6064556  )
       140        S      tau( 140) = (   0.4999499   0.7216482  -0.1241729  )
       141        S      tau( 141) = (   0.3750006   0.7941054   0.3569117  )
       142        S      tau( 142) = (   0.3749996   0.6495200  -0.3584711  )
       143        S      tau( 143) = (   0.5000314   0.7216102   0.1241515  )
       144        S      tau( 144) = (   0.3752329   0.7966920   0.6062052  )
       145        Pt     tau( 145) = (   0.2580795   0.4348292   0.7095693  )
       146        Pd     tau( 146) = (   0.4899479   0.4358638   0.7204770  )
       147        Pt     tau( 147) = (   0.6254299   0.2160864   0.7301439  )

     DFT-D3 Dispersion Correction (3-body terms):
       Reference C6 values for interpolation:

[...]
   -40.6221 -40.6183 -40.6105 -40.6063 -40.6055 -40.5956 -40.5902 -40.5892
   -40.5889 -40.5861 -40.5844 -40.5732 -40.5590 -40.5583 -40.5546 -40.5509
   -40.5429 -40.5394 -40.5290 -40.5265 -40.5160 -40.5004 -40.4930 -40.4758
   -40.4647 -40.4609 -20.1127 -19.8981 -19.8780 -19.8249 -19.7225 -19.6898
   -19.4878 -19.4732 -19.4340 -19.4169 -19.2920 -19.2771 -19.1373 -18.9912
   -18.8611 -18.7944 -18.7601 -18.7449 -18.7435 -18.7409 -18.7359 -18.6689
   -18.6619 -18.6458 -18.6327 -18.6213 -18.6147 -18.6019 -18.5615 -18.5408
   -18.5354 -18.4970 -18.4955 -18.4753 -18.4685 -18.4444 -18.4281 -18.4000
   -18.3891 -18.3659 -18.3211 -18.2935 -18.2781 -18.2632 -18.2402 -18.2251
   -18.2037 -18.1852 -18.1684 -18.1384 -18.1364 -18.1324 -18.1323 -18.1321
   -18.1302 -18.1151 -18.1075 -18.0971 -18.0671 -18.0613 -18.0554 -18.0522
   -18.0481 -18.0472 -18.0306 -18.0224 -18.0089 -17.9953 -17.9866 -17.9823
   -17.9596 -17.9546 -17.9444 -17.9438 -17.9400 -17.9316 -17.8957 -17.8862
   -17.8838 -17.8762 -17.8687 -17.8687 -17.8334 -17.8301 -17.8162 -17.8104
   -17.8092 -17.8043 -17.7932 -17.7927 -17.7859 -17.7689 -17.7506 -17.7493
   -17.6979 -17.6848 -12.1432 -12.0250 -11.8193 -11.7030 -11.6598 -11.6350
   -11.5955 -11.5643 -11.4848 -11.4777 -11.4763 -11.4762 -11.4681 -11.4524
   -11.4377 -11.3950 -11.3886 -11.3814 -11.3782 -11.3780 -11.3247 -11.3074
   -11.3006 -11.2939 -11.2853 -11.2615 -11.2615 -11.2442 -11.2187 -11.2169
   -11.2104 -11.1743 -11.1697 -11.1591 -11.1476 -11.1337 -11.0659 -11.0623
   -11.0576 -11.0365 -10.9907 -10.9768 -10.9643 -10.9590 -10.9241 -10.9231
   -10.9120 -10.9051 -10.8987 -10.8863 -10.8743 -10.8505 -10.8420 -10.8354
   -10.8349 -10.8339 -10.8321 -10.8233 -10.8200 -10.7945 -10.7723 -10.7700
   -10.7661 -10.7638 -10.6897 -10.6790 -10.6126 -10.5906 -10.5787 -10.5131
   -10.4950 -10.4488 -10.3789 -10.3608 -10.3258 -10.2204 -10.2124 -10.1723
   -10.1341 -10.1250 -10.1209 -10.0970 -10.0480 -10.0317 -10.0209  -9.9804
    -9.9666  -9.9624  -9.9527  -9.9371  -9.9336  -9.9253  -9.9123  -9.9095
    -9.9010  -9.8995  -9.8811  -9.8639  -9.8238  -9.8144  -9.7701  -9.7605
    -9.7585  -9.7512  -9.7288  -9.7181  -9.7153  -9.7120  -9.7030  -9.6933
    -9.6750  -9.6689  -9.6401  -9.6337  -9.6224  -9.6171  -9.5853  -9.5675
    -9.5630  -9.5453  -9.5322  -9.5280  -9.5184  -9.5121  -9.4797  -9.4744
    -9.4706  -9.4317  -9.3846  -9.3354  -9.3190  -9.2397  -9.2268  -9.2156
    -9.2146  -9.1965  -9.1766  -9.1654  -9.1558  -9.1393  -9.1278  -9.1196
    -9.1045  -9.0909  -9.0758  -9.0583  -9.0555  -9.0532  -9.0299  -9.0195
    -9.0149  -9.0039  -8.9967  -8.9787  -8.9713  -8.9628  -8.9566  -8.9444
    -8.9401  -8.9375  -8.9284  -8.9108  -8.9087  -8.8909  -8.8686  -8.8641
[...]
    -3.7772  -3.7560  -3.6850  -3.6707  -3.6222  -3.6047  -3.6008  -3.5995
    -3.5916  -3.5842  -3.5837  -3.5821  -3.5661  -3.5619  -3.5103  -3.5070
    -3.5030  -3.4952  -3.4840  -3.4763  -3.4729  -3.4699  -3.4684  -3.4285
    -3.4254  -3.4097  -3.3959  -3.3787  -3.3628  -3.3573  -3.3509  -3.3508
    -3.3387  -3.3218  -3.3182  -3.3118  -3.3100  -3.2790  -3.2764  -3.2751
    -3.2742  -3.2718  -3.2621  -3.2509  -3.2351  -3.2325  -3.2257  -3.2197
    -3.2197  -3.2163  -3.2052  -3.2015  -3.1898  -3.1756  -3.1507  -3.1377
    -3.1266  -3.1176  -3.0844  -3.0713  -3.0706  -3.0464  -3.0432  -3.0302
    -3.0260  -3.0127  -3.0117  -3.0114  -3.0112  -2.9889  -2.9768  -2.9647
    -2.9613  -2.9493  -2.9418  -2.9391  -2.9333  -2.9284  -2.9171  -2.9136
    -2.9059  -2.9032  -2.9002  -2.8805  -2.8747  -2.8595  -2.8499  -2.8392
    -2.8295  -2.8163  -2.8092  -2.8062  -2.7985  -2.7591  -2.7467  -2.7179
    -2.7126  -2.6981  -2.6575  -2.6517  -2.6470  -2.6386  -2.6280  -2.6096
    -2.5682  -2.5661  -2.5346  -2.5178  -2.5005  -2.4891  -2.4748  -2.4507
    -2.4200  -2.3707  -2.3452  -2.3254  -2.3223  -2.2937

     the Fermi energy is    -4.7071 ev

!    total energy              =  -27706.45647879 Ry
     total all-electron energy =   -549111.718918 Ry
     estimated scf accuracy    <          2.9E-09 Ry
     smearing contrib. (-TS)   =      -0.00000027 Ry
     internal energy E=F+TS    =  -27706.45647852 Ry

     The total energy is F=E-TS. E is the sum of the following terms:
     one-electron contribution =  525078.90841144 Ry
     hartree contribution      = -262720.67569054 Ry
     xc contribution           =   -1610.27015703 Ry
     ewald contribution        = -271670.68042421 Ry
     DFT-D3 Dispersion         =      -4.06405120 Ry
     one-center paw contrib.   =  -16779.67456696 Ry

     convergence has been achieved in  11 iterations

     negative rho (up, down):  9.324E-04 0.000E+00

     Forces acting on atoms (cartesian axes, Ry/au):

     atom    1 type  1   force =    -0.00018151   -0.00019094   -0.00029159
     atom    2 type  1   force =     0.00000300    0.00000544    0.00190038
     atom    3 type  1   force =     0.00001585   -0.00001037    0.00002624
     atom    4 type  2   force =     0.00000175    0.00000263   -0.00327892
     atom    5 type  2   force =     0.00000230    0.00007654    0.00000074
     atom    6 type  2   force =    -0.00021837   -0.00006536   -0.00004273
     atom    7 type  2   force =     0.00000115    0.00000409    0.00147581
     atom    8 type  2   force =     0.00005053    0.00002883    0.00004583
     atom    9 type  2   force =    -0.00000154    0.00009939    0.00003509
     atom   10 type  1   force =    -0.00003466    0.00020013   -0.00035127
     atom   11 type  1   force =     0.00000125    0.00000642    0.00189442
     atom   12 type  1   force =     0.00001537    0.00005066   -0.00004234
     atom   13 type  2   force =     0.00000189    0.00000228   -0.00327868
     atom   14 type  2   force =     0.00000972   -0.00003293    0.00001174
     atom   15 type  2   force =     0.00036088   -0.00028267   -0.00001240
     atom   16 type  2   force =    -0.00001218    0.00000932    0.00147156
     atom   17 type  2   force =    -0.00000215    0.00003299   -0.00004466
     atom   18 type  2   force =     0.00008847   -0.00023734    0.00012723
     atom   19 type  1   force =    -0.00008072   -0.00001468    0.00012108
     atom   20 type  1   force =     0.00000146    0.00000661    0.00188861
     atom   21 type  1   force =     0.00001518    0.00000606   -0.00005456
     atom   22 type  2   force =     0.00000116    0.00000263   -0.00328015
     atom   23 type  2   force =     0.00001743    0.00003861   -0.00012539
     atom   24 type  2   force =     0.00067898    0.00010873   -0.00011425
     atom   25 type  2   force =     0.00000261    0.00001266    0.00148721
     atom   26 type  2   force =     0.00002875    0.00005999   -0.00005819
     atom   27 type  2   force =     0.00021199   -0.00021536    0.00013916
     atom   28 type  1   force =    -0.00007184   -0.00006353   -0.00061398
     atom   29 type  1   force =     0.00000640    0.00000129    0.00189404
     atom   30 type  1   force =    -0.00001665    0.00003631    0.00004205
     atom   31 type  2   force =     0.00000082    0.00000272   -0.00327973
     atom   32 type  2   force =    -0.00000565    0.00001948   -0.00000065
     atom   33 type  2   force =    -0.00016185    0.00010929   -0.00032497
     atom   34 type  2   force =     0.00001361    0.00000031    0.00150066
     atom   35 type  2   force =     0.00000754   -0.00000465   -0.00003701
     atom   36 type  2   force =     0.00036837    0.00018318   -0.00032559
     atom   37 type  1   force =    -0.00015811    0.00006206    0.00032839
     atom   38 type  1   force =     0.00000590    0.00000340    0.00189007
     atom   39 type  1   force =    -0.00001833    0.00004317   -0.00002461
     atom   40 type  2   force =     0.00000069    0.00000314   -0.00327947
     atom   41 type  2   force =    -0.00000863    0.00007493   -0.00007476
     atom   42 type  2   force =    -0.00029934    0.00006815   -0.00037990
     atom   43 type  2   force =     0.00001768    0.00000074    0.00149319
     atom   44 type  2   force =    -0.00002082    0.00000268   -0.00010849
     atom   45 type  2   force =    -0.00014120   -0.00056942   -0.00041126
     atom   46 type  1   force =     0.00020498   -0.00003109   -0.00026556
     atom   47 type  1   force =     0.00000302    0.00000381    0.00189751
     atom   48 type  1   force =     0.00000691    0.00004047   -0.00000481
     atom   49 type  2   force =     0.00000149    0.00000279   -0.00327909
     atom   50 type  2   force =    -0.00002080    0.00000870   -0.00004961
     atom   51 type  2   force =     0.00000753   -0.00034778   -0.00055047
     atom   52 type  2   force =     0.00000437    0.00001859    0.00146220
     atom   53 type  2   force =     0.00002948    0.00006501   -0.00004468
     atom   54 type  2   force =    -0.00056526   -0.00007484   -0.00052287
     atom   55 type  1   force =     0.00021696   -0.00008789   -0.00017298
     atom   56 type  1   force =    -0.00000013    0.00000638    0.00189350
     atom   57 type  1   force =     0.00001641    0.00002065   -0.00005517
     atom   58 type  2   force =     0.00000172    0.00000153   -0.00327903
     atom   59 type  2   force =     0.00002727    0.00002153   -0.00002451
     atom   60 type  2   force =    -0.00025877    0.00061738   -0.00014285
[...]
     atom  133 type  2   force =     0.00001100   -0.00000297    0.00149839
     atom  134 type  2   force =     0.00001873    0.00006775   -0.00006163
     atom  135 type  2   force =    -0.00011771   -0.00032677    0.00047263
     atom  136 type  1   force =    -0.00005366    0.00008411   -0.00005429
     atom  137 type  1   force =    -0.00000014    0.00000162    0.00190219
     atom  138 type  1   force =    -0.00000781    0.00001164   -0.00002004
     atom  139 type  2   force =     0.00000150    0.00000244   -0.00327987
     atom  140 type  2   force =    -0.00002643    0.00001244    0.00003292
     atom  141 type  2   force =     0.00009762    0.00001148   -0.00010590
     atom  142 type  2   force =    -0.00001370    0.00000104    0.00147548
     atom  143 type  2   force =    -0.00002922   -0.00004501    0.00003202
     atom  144 type  2   force =     0.00002156    0.00048988    0.00026054
     atom  145 type  3   force =    -0.00083787    0.00017884   -0.00027125
     atom  146 type  4   force =    -0.00040929    0.00009190    0.00097493
     atom  147 type  3   force =     0.00063075   -0.00037560   -0.00027163

     Total force =     0.004026     Total SCF correction =     0.000473
     SCF correction compared to forces is large: reduce conv_thr to get better values
     Energy error            =      3.6E-05 Ry
     Gradient error          =      9.7E-04 Ry/Bohr

     bfgs converged in  39 scf cycles and  38 bfgs steps
     (criteria: energy <  1.0E-04 Ry, force <  1.0E-03 Ry/Bohr)

     End of BFGS Geometry Optimization

     Final energy             =  -27706.4564787851 Ry

     File ./outdir/pwscf.bfgs deleted, as requested
Begin final coordinates

ATOMIC_POSITIONS (angstrom)
Mo               1.5734573498        2.7345735566        6.0859666933
Mo               1.5769197498        0.9104407117       -6.0872367793    0   0   0
Mo              -0.0001556313        1.8219865248       -0.0042458540
S                0.0000044503        0.0000077495       -7.6506323570    0   0   0
S                1.5775533602        0.9113889475       -1.5694043358
S               -0.0059625895        1.8419012553        4.5129778009
S                0.0000053241        0.0000068460       -4.5222282367    0   0   0
S                1.5756987868        0.9113591788        1.5622628156
S                0.0095312240        1.8170956383        7.6544377062
Mo              -0.0067841518        5.4742278048        6.0963184643
Mo               0.0000011799        3.6417399547       -6.0872367793    0   0   0
Mo              -1.5763729704        4.5525883455       -0.0024380113
S               -1.5769141197        2.7313069925       -7.6506323570    0   0   0
S               -0.0002220342        3.6429893045       -1.5693919079
S               -1.5596135956        4.5572219009        4.5126799147
S               -1.5769132459        2.7313060890       -4.5222282367    0   0   0
S                0.0017285989        3.6425337302        1.5635926261
S               -1.5879015166        4.5712346924        7.6582265470
Mo              -1.5758536262        8.2080965952        6.0554243372
Mo              -1.5769173901        6.3730391977       -6.0872367793    0   0   0
Mo              -3.1538070587        7.2838259676       -0.0007977262
S               -3.1538326896        5.4626062355       -7.6506323570    0   0   0
S               -1.5771344188        6.3740204364       -1.5667083792
S               -3.1485292666        7.2968741368        4.4844528736
S               -3.1538318159        5.4626053320       -4.5222282367    0   0   0
S               -1.5763099358        6.3728353693        1.5654787049
S               -3.1474859219        7.3190580263        7.6239214149
Mo               3.1522650515        0.0085711297        6.0615264167
Mo              -3.1538359601        9.1043384407       -6.0872367793    0   0   0
Mo              -4.7306951332       10.0157908514       -0.0044767466
S               -4.7307512596        8.1939054785       -7.6506323570    0   0   0
S               -3.1522990776        9.1043072306       -1.5671722362
S               -4.7347245911       10.0353713585        4.4930962490
S               -4.7307503859        8.1939045750       -4.5222282367    0   0   0
S               -3.1550416332        9.1059245374        1.5644641581
S               -4.7286977443       10.0203847809        7.6291427247
Mo               4.7216518499        2.7040809227        6.0553633490
Mo               4.7307503218        0.9104407117       -6.0872367793    0   0   0
Mo               3.1540363701        1.8215577223       -0.0025862829
S                3.1538350223        0.0000077495       -7.6506323570    0   0   0
S                4.7321227864        0.9106112134       -1.5661085912
S                3.1360628859        1.8264204586        4.4899308527
S                3.1538358961        0.0000068460       -4.5222282367    0   0   0
S                4.7308169851        0.9122162162        1.5666268380
S                3.1489759238        1.8215151764        7.6358011340
Mo               3.1538062160        5.4708529904        6.1078097848
Mo               3.1538317519        3.6417399547       -6.0872367793    0   0   0
Mo               1.5772927920        4.5526984218       -0.0042153281
S                1.5769164523        2.7313069925       -7.6506323570    0   0   0
S                3.1550628611        3.6420516148       -1.5683754301
S                1.5880506498        4.5750833908        4.5515455948
S                1.5769173261        2.7313060890       -4.5222282367    0   0   0
S                3.1526284092        3.6425805429        1.5641541808
S                1.5067657178        4.5169489095        7.7237998816
Mo               1.5708173495        8.2123641261        6.0846059651
Mo               1.5769131819        6.3730391977       -6.0872367793    0   0   0
Mo               0.0002361233        7.2838996622       -0.0014218929
S               -0.0000021176        5.4626062355       -7.6506323570    0   0   0
S                1.5766808902        6.3743438178       -1.5683308791
S                0.0099234270        7.2832433507        4.5103487954
[...]
S                6.3076599001        5.4626053320       -4.5222282367    0   0   0
S                7.8841272252        6.3730718860        1.5665835149
S                6.3116464759        7.3019847284        7.6164120803
Mo              -0.0006827822        0.0133902092        6.0691255346
Mo               6.3076557559        9.1043384407       -6.0872367793    0   0   0
Mo               4.7306490023       10.0158949092       -0.0030941587
S                4.7307404564        8.1939054785       -7.6506323570    0   0   0
S                6.3074249057        9.1043316669       -1.5686426954
S                4.7223150978       10.0363470746        4.5042851552
S                4.7307413301        8.1939045750       -4.5222282367    0   0   0
S                6.3079062036        9.1071524440        1.5626447299
S                4.7476052822       10.0221010956        7.6474887258
Pt               3.3435914351        5.3952387002        8.9419810031
Pd               6.0350801552        4.8824361279        9.5265457556
Pt               7.8160626021        2.8265354315        8.9078310121
End final coordinates

     Writing all to output data dir ./outdir/pwscf.save/ :
     XML data file, charge density, pseudopotentials, collected wavefunctions

     General routines

     Parallel routines

   This run was terminated on:   4:43:35   2Apr2024

   JOB DONE.