     Program PWSCF v.7.2 starts on  3Nov2023 at 21: 3:18

     Waiting for input...
     Reading input from standard input
Warning: card &CELL ignored
Warning: card / ignored

     Current dimensions of program PWSCF are:
     Max number of different atomic species (ntypx) = 10
     Max number of k-points (npk) =  40000
     Max angular momentum in pseudopotentials (lmaxx) =  4
     file Mo.pbe-spn-kjpaw_psl.1.0.0.UPF: wavefunction(s)  4S 4D renormalized
     file S.pbe-n-kjpaw_psl.1.0.0.UPF: wavefunction(s)  3S 3P renormalized
     file Pd.pbe-spn-kjpaw_psl.1.0.0.UPF: wavefunction(s)  4S 5S 4D renormalized

     R & G space division:  proc/nbgrp/npool/nimage =      36
     Subspace diagonalization in iterative solution of the eigenvalue problem:
     one sub-group per band group will be used

     Using Slab Decomposition

     bravais-lattice index     =            0
     lattice parameter (alat)  =      23.8199  a.u.
     unit-cell volume          =   33861.0370 (a.u.)^3
     number of atoms/cell      =          195
     number of atomic types    =            3
     number of electrons       =      1718.00
     number of Kohn-Sham states=         1031
     kinetic-energy cutoff     =      77.0000  Ry
     charge density cutoff     =     539.0000  Ry
     scf convergence threshold =      1.0E-06
     mixing beta               =       0.2000
     number of iterations used =            8  plain     mixing
     energy convergence thresh.=      1.0E-04
     force convergence thresh. =      1.0E-03
     Exchange-correlation= SLA  PW   PBX  PBC
                           (   1   4   3   4   0   0   0)
     nstep                     =         1000

     Effective Screening Medium Method
     Boundary Conditions: Vacuum-Slab-Vacuum
     total charge in unit cell        =   0.0000
     grid points for fit at edges     =        4

     celldm(1)=  23.819920  celldm(2)=   0.000000  celldm(3)=   0.000000
     celldm(4)=   0.000000  celldm(5)=   0.000000  celldm(6)=   0.000000

     crystal axes: (cart. coord. in units of alat)
               a(1) = (   1.000000   0.000000   0.000000 )
               a(2) = (  -0.499999   0.866026   0.000000 )
               a(3) = (   0.000000   0.000000   2.893000 )

     reciprocal axes: (cart. coord. in units 2 pi/alat)
               b(1) = (  1.000000  0.577349  0.000000 )
               b(2) = (  0.000000  1.154700  0.000000 )
               b(3) = (  0.000000  0.000000  0.345662 )

     PseudoPot. # 1 for Mo read from file:
     ./pseudo/Mo.pbe-spn-kjpaw_psl.1.0.0.UPF
     MD5 check sum: 317bf72632116215fd98f72de1686f13
     Pseudo is Projector augmented-wave + core cor, Zval = 14.0
     Generated using 'atomic' code by A. Dal Corso  v.7.2
     Shape of augmentation charge: PSQ
     Using radial grid of 1229 points,  6 beta functions with:
                l(1) =   0
                l(2) =   0
                l(3) =   1
                l(4) =   1
                l(5) =   2
                l(6) =   2
     Q(r) pseudized with 0 coefficients

     PseudoPot. # 2 for S  read from file:
     ./pseudo/S.pbe-n-kjpaw_psl.1.0.0.UPF
     MD5 check sum: 8b7b5302570d38d5e87fed6a1065abda
     Pseudo is Projector augmented-wave + core cor, Zval =  6.0
     Generated using 'atomic' code by A. Dal Corso  v.7.2
     Shape of augmentation charge: PSQ
     Using radial grid of 1151 points,  6 beta functions with:
                l(1) =   0
                l(2) =   0
                l(3) =   1
                l(4) =   1
                l(5) =   2
                l(6) =   2
     Q(r) pseudized with 0 coefficients

     PseudoPot. # 3 for Pd read from file:
     ./pseudo/Pd.pbe-spn-kjpaw_psl.1.0.0.UPF
     MD5 check sum: a60571a671f2502b8a6a4569d20a6edb
     Pseudo is Projector augmented-wave + core cor, Zval = 18.0
     Generated using 'atomic' code by A. Dal Corso  v.7.2
     Shape of augmentation charge: PSQ
     Using radial grid of 1235 points,  6 beta functions with:
                l(1) =   0
                l(2) =   0
                l(3) =   1
                l(4) =   1
                l(5) =   2
                l(6) =   2
     Q(r) pseudized with 0 coefficients

     atomic species   valence    mass     pseudopotential
        Mo            14.00    95.95000     Mo( 1.00)
        S              6.00    32.06000     S ( 1.00)
        Pd            18.00   106.42000     Pd( 1.00)

     No symmetry found

   Cartesian axes

     site n.     atom                  positions (alat units)
         1           Mo  tau(   1) = (   0.0000010   0.1443372  -0.7272732  )
         2           Mo  tau(   2) = (   0.1249995   0.0721706  -0.2424038  )
         3           S   tau(   3) = (   0.0000015   0.1443386  -0.3667807  )
         4           S   tau(   4) = (   0.1250010   0.0721682  -0.6030489  )
         5           S   tau(   5) = (   0.1250010   0.0721683  -0.8514963  )
         6           S   tau(   6) = (   0.0000015   0.1443389  -0.1180260  )
         7           Mo  tau(   7) = (   0.0000222   0.1444187   0.2425595  )
         8           Mo  tau(   8) = (   0.1245966   0.0727010   0.7278826  )
         9           S   tau(   9) = (   0.0000166   0.1448419   0.6020343  )
        10           S   tau(  10) = (   0.1250561   0.0722903   0.3669179  )
        11           S   tau(  11) = (   0.1250140   0.0722444   0.1181576  )
        12           S   tau(  12) = (  -0.0013476   0.1442175   0.8515296  )
        13           Mo  tau(  13) = (  -0.1249989   0.3608437  -0.7272732  )
        14           Mo  tau(  14) = (   0.0000030   0.2886752  -0.2424042  )
        15           S   tau(  15) = (  -0.1249977   0.3608450  -0.3667802  )
        16           S   tau(  16) = (   0.0000012   0.2886747  -0.6030489  )
        17           S   tau(  17) = (   0.0000012   0.2886748  -0.8514963  )
        18           S   tau(  18) = (  -0.1249977   0.3608454  -0.1180274  )
        19           Mo  tau(  19) = (  -0.1249777   0.3609089   0.2425603  )
        20           Mo  tau(  20) = (  -0.0029637   0.2882853   0.7270120  )
        21           S   tau(  21) = (  -0.1256983   0.3625185   0.6019747  )
        22           S   tau(  22) = (   0.0000591   0.2887797   0.3669668  )
        23           S   tau(  23) = (   0.0000075   0.2887346   0.1181682  )
        24           S   tau(  24) = (  -0.1270233   0.3617098   0.8514678  )
        25           Mo  tau(  25) = (  -0.2499987   0.5773502  -0.7272732  )
        26           Mo  tau(  26) = (  -0.1249977   0.5051839  -0.2424055  )
        27           S   tau(  27) = (  -0.2499981   0.5773518  -0.3667809  )
        28           S   tau(  28) = (  -0.1249986   0.5051812  -0.6030489  )
        29           S   tau(  29) = (  -0.1249986   0.5051813  -0.8514963  )
        30           S   tau(  30) = (  -0.2499979   0.5773512  -0.1180266  )
        31           Mo  tau(  31) = (  -0.2499821   0.5774144   0.2425369  )
        32           Mo  tau(  32) = (  -0.1258229   0.5064885   0.7278520  )
        33           S   tau(  33) = (  -0.2493952   0.5788088   0.6023234  )
        34           S   tau(  34) = (  -0.1249462   0.5052707   0.3669162  )
        35           S   tau(  35) = (  -0.1249880   0.5052329   0.1181602  )
        36           S   tau(  36) = (  -0.2509230   0.5788413   0.8515814  )
        37           Mo  tau(  37) = (  -0.3749985   0.7938567  -0.7272732  )
        38           Mo  tau(  38) = (  -0.2500001   0.7216874  -0.2424031  )
        39           S   tau(  39) = (  -0.3749980   0.7938584  -0.3667800  )
        40           S   tau(  40) = (  -0.2499984   0.7216877  -0.6030489  )
        41           S   tau(  41) = (  -0.2499984   0.7216878  -0.8514963  )
        42           S   tau(  42) = (  -0.3749982   0.7938585  -0.1180264  )
        43           Mo  tau(  43) = (  -0.3749910   0.7939458   0.2425394  )
        44           Mo  tau(  44) = (  -0.2499391   0.7230231   0.7269923  )
        45           S   tau(  45) = (  -0.3746478   0.7955125   0.6023635  )
        46           S   tau(  46) = (  -0.2500018   0.7217675   0.3668983  )
        47           S   tau(  47) = (  -0.2499845   0.7217593   0.1181709  )
        48           S   tau(  48) = (  -0.3753625   0.7942039   0.8516391  )
        49           Mo  tau(  49) = (   0.2500010   0.1443372  -0.7272732  )
        50           Mo  tau(  50) = (   0.3750034   0.0721723  -0.2424032  )
        51           S   tau(  51) = (   0.2500017   0.1443391  -0.3667788  )
        52           S   tau(  52) = (   0.3750010   0.0721682  -0.6030489  )
        53           S   tau(  53) = (   0.3750010   0.0721683  -0.8514963  )
        54           S   tau(  54) = (   0.2500016   0.1443391  -0.1180271  )
        55           Mo  tau(  55) = (   0.2500120   0.1444423   0.2425270  )
        56           Mo  tau(  56) = (   0.3753385   0.0727176   0.7280385  )
        57           S   tau(  57) = (   0.2501061   0.1471948   0.6059873  )
        58           S   tau(  58) = (   0.3749665   0.0722824   0.3669588  )
        59           S   tau(  59) = (   0.3750194   0.0722259   0.1181828  )
        60           S   tau(  60) = (   0.2503224   0.1381707   0.8567863  )
[...]
       181           Mo  tau( 181) = (   0.3750016   0.7938567  -0.7272732  )
       182           Mo  tau( 182) = (   0.5000025   0.7216901  -0.2424039  )
       183           S   tau( 183) = (   0.3750019   0.7938578  -0.3667793  )
       184           S   tau( 184) = (   0.5000016   0.7216877  -0.6030489  )
       185           S   tau( 185) = (   0.5000016   0.7216878  -0.8514963  )
       186           S   tau( 186) = (   0.3750020   0.7938579  -0.1180272  )
       187           Mo  tau( 187) = (   0.3749890   0.7939067   0.2425443  )
       188           Mo  tau( 188) = (   0.5002702   0.7230996   0.7264112  )
       189           S   tau( 189) = (   0.3747820   0.7948530   0.6019718  )
       190           S   tau( 190) = (   0.5000014   0.7217825   0.3669010  )
       191           S   tau( 191) = (   0.5000049   0.7217309   0.1181759  )
       192           S   tau( 192) = (   0.3757788   0.7958654   0.8513800  )
       193           Pd  tau( 193) = (   0.1298567   0.5028633   0.9631584  )
       194           Pd  tau( 194) = (   0.2489715   0.2959876   0.9631435  )
       195           Pd  tau( 195) = (   0.3769152   0.5074987   0.9731620  )

     DFT-D3 Dispersion Correction (3-body terms):
       Reference C6 values for interpolation:

         atom   Coordination number   C6
         S          0.000           268.01
         S          0.995           261.99
         S          1.990           251.62
         Mo         0.000          1691.79
         Mo         1.942          1004.01
         Mo        11.056           674.22
         Pd         0.000          1217.01
         Pd         1.863           573.90
         Pd         5.710           531.75

       Values used:

         atom   Coordination number  R0_AB[au]  C6      C8
         Mo        10.208            3.547    674.22  77634.20
         Mo        10.221            3.547    674.22  77634.20
         S          3.858            3.128    251.62  12327.25
         S          3.859            3.128    251.62  12327.25
[...]
     atom   15 type  2   force =     0.00000000    0.00000000    0.00000000
     atom   16 type  2   force =     0.00000000    0.00000000    0.00000000
     atom   17 type  2   force =     0.00000000    0.00000000    0.00000000
     atom   18 type  2   force =     0.00000000    0.00000000    0.00000000
     atom   19 type  1   force =     0.00000333   -0.00000599    0.00003390
     atom   20 type  1   force =     0.00002240    0.00001291    0.00000698
     atom   21 type  2   force =    -0.00000113    0.00000990   -0.00001038
     atom   22 type  2   force =     0.00000777    0.00000240    0.00001314
     atom   23 type  2   force =     0.00000178   -0.00000001    0.00000903
     atom   24 type  2   force =    -0.00000126   -0.00000293   -0.00001738
     atom   25 type  1   force =     0.00000000    0.00000000    0.00000000
     atom   26 type  1   force =     0.00000000    0.00000000    0.00000000
     atom   27 type  2   force =     0.00000000    0.00000000    0.00000000
     atom   28 type  2   force =     0.00000000    0.00000000    0.00000000
     atom   29 type  2   force =     0.00000000    0.00000000    0.00000000
     atom   30 type  2   force =     0.00000000    0.00000000    0.00000000
     atom   31 type  1   force =    -0.00000295   -0.00001004    0.00002940
     atom   32 type  1   force =    -0.00000772    0.00000081   -0.00005409
     atom   33 type  2   force =     0.00001638   -0.00000366    0.00000149
     atom   34 type  2   force =     0.00000990   -0.00000698    0.00001427
     atom   35 type  2   force =     0.00000191   -0.00000433    0.00000776
     atom   36 type  2   force =    -0.00000745   -0.00000682   -0.00000666
     atom   37 type  1   force =     0.00000000    0.00000000    0.00000000
     atom   38 type  1   force =     0.00000000    0.00000000    0.00000000
     atom   39 type  2   force =     0.00000000    0.00000000    0.00000000
     atom   40 type  2   force =     0.00000000    0.00000000    0.00000000
     atom   41 type  2   force =     0.00000000    0.00000000    0.00000000
     atom   42 type  2   force =     0.00000000    0.00000000    0.00000000
     atom   43 type  1   force =    -0.00000449   -0.00000557    0.00003043
     atom   44 type  1   force =     0.00000550   -0.00000242   -0.00007534
     atom   45 type  2   force =     0.00000315    0.00001405   -0.00000081
     atom   46 type  2   force =     0.00000632   -0.00000006    0.00000610
     atom   47 type  2   force =     0.00000133   -0.00000342    0.00000678
     atom   48 type  2   force =    -0.00000940   -0.00000342   -0.00000480
     atom   49 type  1   force =     0.00000000    0.00000000    0.00000000
     atom   50 type  1   force =     0.00000000    0.00000000    0.00000000
     atom   51 type  2   force =     0.00000000    0.00000000    0.00000000
     atom   52 type  2   force =     0.00000000    0.00000000    0.00000000
     atom   53 type  2   force =     0.00000000    0.00000000    0.00000000
     atom   54 type  2   force =     0.00000000    0.00000000    0.00000000
     atom   55 type  1   force =     0.00000032    0.00000591    0.00003657
     atom   56 type  1   force =    -0.00002165   -0.00000568   -0.00000079
     atom   57 type  2   force =    -0.00000306   -0.00000094   -0.00001005
     atom   58 type  2   force =     0.00000042    0.00000333    0.00001209
     atom   59 type  2   force =    -0.00000011    0.00000036    0.00000760
     atom   60 type  2   force =    -0.00000492   -0.00000687   -0.00001326
[...]
     atom  181 type  1   force =     0.00000000    0.00000000    0.00000000
     atom  182 type  1   force =     0.00000000    0.00000000    0.00000000
     atom  183 type  2   force =     0.00000000    0.00000000    0.00000000
     atom  184 type  2   force =     0.00000000    0.00000000    0.00000000
     atom  185 type  2   force =     0.00000000    0.00000000    0.00000000
     atom  186 type  2   force =     0.00000000    0.00000000    0.00000000
     atom  187 type  1   force =    -0.00000363   -0.00001374    0.00004065
     atom  188 type  1   force =    -0.00001048    0.00000743   -0.00003321
     atom  189 type  2   force =     0.00000133    0.00001315   -0.00000684
     atom  190 type  2   force =    -0.00000638   -0.00000252    0.00000137
     atom  191 type  2   force =    -0.00000182   -0.00000337    0.00000907
     atom  192 type  2   force =     0.00000490   -0.00000768   -0.00001499
     atom  193 type  3   force =    -0.00003086   -0.00005203   -0.00000448
     atom  194 type  3   force =    -0.00004930   -0.00000191   -0.00000451
     atom  195 type  3   force =     0.00003383    0.00001474   -0.00007860

     DFT-D3 dispersion contribution to forces:
     atom    1 type  1   force =     0.00000001    0.00000006    0.00255969
     atom    2 type  1   force =    -0.00000002   -0.00000006    0.00001014
     atom    3 type  2   force =     0.00000000   -0.00000003   -0.00003386
     atom    4 type  2   force =    -0.00000002   -0.00000001    0.00017175
     atom    5 type  2   force =    -0.00000001   -0.00000001    0.00441405
     atom    6 type  2   force =     0.00000008    0.00000008    0.00009543
     atom    7 type  1   force =    -0.00001864   -0.00001033   -0.00000103
     atom    8 type  1   force =     0.00017524    0.00039405   -0.00200192
     atom    9 type  2   force =     0.00000601    0.00003303   -0.00002828
     atom   10 type  2   force =    -0.00001165   -0.00002411    0.00004185
     atom   11 type  2   force =     0.00000010   -0.00000103   -0.00009586
     atom   12 type  2   force =     0.00058479    0.00051406   -0.00406715
     atom   13 type  1   force =     0.00000006   -0.00000002    0.00255969
     atom   14 type  1   force =     0.00000001   -0.00000003    0.00000996
     atom   15 type  2   force =    -0.00000001    0.00000001   -0.00003386
     atom   16 type  2   force =     0.00000001    0.00000000    0.00017174
     atom   17 type  2   force =     0.00000001    0.00000000    0.00441395
     atom   18 type  2   force =     0.00000005    0.00000014    0.00009542
     atom   19 type  1   force =    -0.00001817   -0.00001119   -0.00000106
     atom   20 type  1   force =     0.00058242    0.00033662   -0.00167315
     atom   21 type  2   force =     0.00003235   -0.00001268   -0.00002834
     atom   22 type  2   force =    -0.00003205   -0.00001744    0.00004138
     atom   23 type  2   force =    -0.00000079   -0.00000065   -0.00009710
     atom   24 type  2   force =     0.00073760    0.00024962   -0.00406714
     atom   25 type  1   force =    -0.00000000   -0.00000003    0.00255967
     atom   26 type  1   force =     0.00000001    0.00000000    0.00001011
     atom   27 type  2   force =     0.00000003    0.00000001   -0.00003385
     atom   28 type  2   force =    -0.00000001   -0.00000000    0.00017175
     atom   29 type  2   force =    -0.00000001   -0.00000001    0.00441405
     atom   30 type  2   force =     0.00000007    0.00000004    0.00009564
     atom   31 type  1   force =    -0.00000113   -0.00000706   -0.00000215
     atom   32 type  1   force =     0.00042886   -0.00004491   -0.00200189
     atom   33 type  2   force =    -0.00000286    0.00000128   -0.00007712
     atom   34 type  2   force =    -0.00002791    0.00000339    0.00004153
     atom   35 type  2   force =    -0.00000080    0.00000036   -0.00009584
     atom   36 type  2   force =    -0.00000080   -0.00009702   -0.00423547
     atom   37 type  1   force =    -0.00000002    0.00000000    0.00255967
     atom   38 type  1   force =     0.00000004    0.00000001    0.00001022
     atom   39 type  2   force =     0.00000002    0.00000002   -0.00003384
     atom   40 type  2   force =    -0.00000000   -0.00000001    0.00017170
     atom   41 type  2   force =    -0.00000000   -0.00000000    0.00441413
     atom   42 type  2   force =     0.00000002    0.00000016    0.00009564
     atom   43 type  1   force =    -0.00000635    0.00000228   -0.00000224
     atom   44 type  1   force =     0.00000001    0.00000020   -0.00229276
     atom   45 type  2   force =     0.00000053   -0.00000469   -0.00007709
     atom   46 type  2   force =    -0.00000156   -0.00000004    0.00003994
     atom   47 type  2   force =     0.00000005   -0.00000015   -0.00009555
     atom   48 type  2   force =    -0.00008454    0.00004778   -0.00423560
     atom   49 type  1   force =     0.00000002    0.00000008    0.00255972
     atom   50 type  1   force =    -0.00000000   -0.00000011    0.00001016
     atom   51 type  2   force =    -0.00000002   -0.00000004   -0.00003389
     atom   52 type  2   force =     0.00000001   -0.00000001    0.00017175
     atom   53 type  2   force =     0.00000001   -0.00000003    0.00441405
     atom   54 type  2   force =    -0.00000006   -0.00000001    0.00009564
     atom   55 type  1   force =     0.00000029   -0.00001583   -0.00003000
     atom   56 type  1   force =    -0.00017417    0.00039475   -0.00200285
     atom   57 type  2   force =     0.00000038    0.00007856    0.00024231
     atom   58 type  2   force =     0.00001097   -0.00002276    0.00004301
     atom   59 type  2   force =    -0.00000013   -0.00000116   -0.00009595
     atom   60 type  2   force =     0.00000133    0.00069042   -0.00421153
[...]
     atom  181 type  1   force =    -0.00000005   -0.00000005    0.00255970
     atom  182 type  1   force =     0.00000004    0.00000007    0.00001002
     atom  183 type  2   force =    -0.00000001    0.00000002   -0.00003387
     atom  184 type  2   force =     0.00000001    0.00000001    0.00017177
     atom  185 type  2   force =    -0.00000000    0.00000001    0.00441405
     atom  186 type  2   force =     0.00000002    0.00000006    0.00009541
     atom  187 type  1   force =    -0.00000087    0.00001980    0.00000092
     atom  188 type  1   force =    -0.00025324   -0.00034725   -0.00199897
     atom  189 type  2   force =    -0.00002777   -0.00002734   -0.00002722
     atom  190 type  2   force =     0.00001570    0.00002203    0.00004095
     atom  191 type  2   force =     0.00000103    0.00000021   -0.00009556
     atom  192 type  2   force =    -0.00015375   -0.00076121   -0.00406262
     atom  193 type  3   force =     0.00025246   -0.00014687   -0.00629386
     atom  194 type  3   force =    -0.00000102    0.00029208   -0.00629376
     atom  195 type  3   force =    -0.00025402   -0.00014660   -0.00629105

     Total force =     0.002563     Total SCF correction =     0.000293
     SCF correction compared to forces is large: reduce conv_thr to get better values
     Energy error            =      1.2E-05 Ry
     Gradient error          =      9.1E-04 Ry/Bohr

     bfgs converged in  17 scf cycles and  16 bfgs steps
     (criteria: energy <  1.0E-04 Ry, force <  1.0E-03 Ry/Bohr)

     End of BFGS Geometry Optimization

     Final energy             =  -33329.5915383242 Ry

     File ./outdir/pwscf.bfgs deleted, as requested
Begin final coordinates

ATOMIC_POSITIONS (angstrom)
Mo            0.0000119917        1.8193638619       -9.1672481230    0   0   0
Mo            1.5756136568        0.9097075315       -3.0554901653    0   0   0
S             0.0000188998        1.8193822938       -4.6232556019    0   0   0
S             1.5756321638        0.9096773839       -7.6014065489    0   0   0
S             1.5756326175        0.9096785128      -10.7330757790    0   0   0
S             0.0000189190        1.8193860094       -1.4877129945    0   0   0
Mo            0.0001853619        1.8210950180        3.0581035240
Mo            1.5731971909        0.9166479586        9.1748062063
S             0.0065906486        1.8276950016        7.5843708579
S             1.5760734522        0.9116502998        4.6257384794
S             1.5756092993        0.9112763789        1.4901344531
S            -0.0152110651        1.8225266801       10.7299671314
Mo           -1.5756053507        4.5484193819       -9.1672481230    0   0   0
Mo            0.0000378379        3.6387394919       -3.0554952701    0   0   0
S            -1.5755913433        4.5484363582       -4.6232494962    0   0   0
S             0.0000148214        3.6387329039       -7.6014065489    0   0   0
S             0.0000152751        3.6387340328      -10.7330757790    0   0   0
S            -1.5755906502        4.5484413613       -1.4877305502    0   0   0
Mo           -1.5754054847        4.5501453437        3.0580894989
Mo           -0.0312524970        3.6360338473        9.1594643410
S            -1.5783117855        4.5727739263        7.5843010965
S             0.0004353930        3.6406945410        4.6262472396
S             0.0003685290        3.6404409318        1.4904755169
S            -1.5938970609        4.5567710567       10.7299548957
Mo           -3.1512226931        7.2774749019       -9.1672481230    0   0   0
Mo           -1.5755910988        6.3678216792       -3.0555115988    0   0   0
S            -3.1512162438        7.2774954350       -4.6232578178    0   0   0
S            -1.5756025210        6.3677884239       -7.6014065489    0   0   0
S            -1.5756020673        6.3677895528      -10.7330757790    0   0   0
S            -3.1512127704        7.2774877076       -1.4877200710    0   0   0
Mo           -3.1511545742        7.2791073139        3.0579505730
Mo           -1.5840483564        6.3851591215        9.1747658692
S            -3.1488827443        7.2941532386        7.5987478393
S            -1.5751649008        6.3697722531        4.6257300469
S            -1.5754794061        6.3692589543        1.4901353432
S            -3.1519992221        7.2943245040       10.7443624647
Mo           -4.7268400355       10.0065304219       -9.1672481230    0   0   0
Mo           -3.1512405618        9.0968403586       -3.0554816746    0   0   0
S            -4.7268341792       10.0065523623       -4.6232463762    0   0   0
S            -3.1512198634        9.0968439439       -7.6014065489    0   0   0
S            -3.1512194097        9.0968450728      -10.7330757790    0   0   0
S            -4.7268370797       10.0065537885       -1.4877176751    0   0   0
Mo           -4.7268072405       10.0081868850        3.0579870503
Mo           -3.1514511309        9.1120196583        9.1709716403
S            -4.7244474349       10.0230357888        7.5987949274
S            -3.1511312231        9.0985950279        4.6255001432
S            -3.1512758178        9.0983324544        1.4900470192
S            -4.7259424535       10.0205286230       10.7444059711
Mo            3.1512517547        1.8193638619       -9.1672481230    0   0   0
Mo            4.7269020221        0.9097289540       -3.0554823951    0   0   0
S             3.1512612351        1.8193882564       -4.6232320683    0   0   0
S             4.7268719268        0.9096773839       -7.6014065489    0   0   0
S             4.7268723805        0.9096785128      -10.7330757790    0   0   0
S             3.1512592485        1.8193890201       -1.4877261251    0   0   0
Mo            3.1511790091        1.8213583984        3.0578532961
Mo            4.7290161303        0.9160553947        9.1759627728
S             3.1515927370        1.8478294152        7.6299954209
S             4.7262227985        0.9114802017        4.6256964534
S             4.7268228578        0.9113697617        1.4901381430
S             3.1505924453        1.7470592729       10.8015800554
[...]
Mo            4.7268792535       10.0065304219       -9.1672481230    0   0   0
Mo            6.3025111524        9.0968738021       -3.0554915260    0   0   0
S             4.7268840634       10.0065452125       -4.6232380477    0   0   0
S             6.3024994256        9.0968439439       -7.6014065489    0   0   0
S             6.3024998793        9.0968450728      -10.7330757790    0   0   0
S             4.7268847312       10.0065459141       -1.4877283294    0   0   0
Mo            4.7268170583       10.0078530521        3.0583846542
Mo            6.3093568619        9.1196807958        9.1711541893
S             4.7376620236       10.0237582744        7.5807834540
S             6.3027082280        9.0980965934        4.6257721564
S             6.3023161857        9.0982620139        1.4903351395
S             4.7302305961       10.0406621180       10.7268791107
Pd            1.6605509543        6.3398406411       12.1809045987
Pd            3.1561227195        3.7497887741       12.1808484961
Pd            4.6510912091        6.3396150765       12.1741164399
End final coordinates

     Writing all to output data dir ./outdir/pwscf.save/

     General routines

     Parallel routines

   This run was terminated on:  16:13:50   5Nov2023

   JOB DONE.
Application 11372407 resources: utime ~5537502s, stime ~57721s, Rss ~3518132, inblocks ~0, outblocks ~57212208