     Program PWSCF v.7.3 starts on  5Apr2024 at 16: 9:33

     Waiting for input...
     Reading input from standard input
Warning: card &CELL ignored
Warning: card / ignored

     Current dimensions of program PWSCF are:
     Max number of different atomic species (ntypx) = 10
     Max number of k-points (npk) =  40000
     Max angular momentum in pseudopotentials (lmaxx) =  4
     file Mo.pbe-spn-kjpaw_psl.1.0.0.UPF: wavefunction(s)  4S 4D renormalized
     file S.pbe-n-kjpaw_psl.1.0.0.UPF: wavefunction(s)  3S 3P renormalized
     file Pt.pbe-spfn-kjpaw_psl.1.0.0.UPF: wavefunction(s)  5P 4F renormalized
     file Pd.pbe-spn-kjpaw_psl.1.0.0.UPF: wavefunction(s)  4S 5S 4D renormalized

     R & G space division:  proc/nbgrp/npool/nimage =      36
     Subspace diagonalization in iterative solution of the eigenvalue problem:
     one sub-group per band group will be used

     Using Slab Decomposition

     bravais-lattice index     =            0
     lattice parameter (alat)  =      23.8199  a.u.
     unit-cell volume          =   33861.0370 (a.u.)^3
     number of atoms/cell      =          195
     number of atomic types    =            4
     number of electrons       =      1746.00
     number of Kohn-Sham states=         1048
     kinetic-energy cutoff     =      77.0000  Ry
     charge density cutoff     =     539.0000  Ry
     scf convergence threshold =      1.0E-06
     mixing beta               =       0.2000
     number of iterations used =            8  plain     mixing
     energy convergence thresh.=      1.0E-04
     force convergence thresh. =      1.0E-03
     Exchange-correlation= SLA  PW   PBX  PBC
                           (   1   4   3   4   0   0   0)
     nstep                     =         1000

     Effective Screening Medium Method
     Boundary Conditions: Vacuum-Slab-Vacuum
     total charge in unit cell        =   0.0000
     grid points for fit at edges     =        4

     celldm(1)=  23.819920  celldm(2)=   0.000000  celldm(3)=   0.000000
     celldm(4)=   0.000000  celldm(5)=   0.000000  celldm(6)=   0.000000

     crystal axes: (cart. coord. in units of alat)
               a(1) = (   1.000000   0.000000   0.000000 )
               a(2) = (  -0.499999   0.866026   0.000000 )
               a(3) = (   0.000000   0.000000   2.893000 )

     reciprocal axes: (cart. coord. in units 2 pi/alat)
               b(1) = (  1.000000  0.577349  0.000000 )
               b(2) = (  0.000000  1.154700  0.000000 )
               b(3) = (  0.000000  0.000000  0.345662 )

     PseudoPot. # 1 for Mo read from file:
     ./pseudo/Mo.pbe-spn-kjpaw_psl.1.0.0.UPF
     MD5 check sum: 317bf72632116215fd98f72de1686f13
     Pseudo is Projector augmented-wave + core cor, Zval = 14.0
     Generated using 'atomic' code by A. Dal Corso  v.7.2
     Shape of augmentation charge: PSQ
     Using radial grid of 1229 points,  6 beta functions with:
                l(1) =   0
                l(2) =   0
                l(3) =   1
                l(4) =   1
                l(5) =   2
                l(6) =   2
     Q(r) pseudized with 0 coefficients

     PseudoPot. # 2 for S  read from file:
     ./pseudo/S.pbe-n-kjpaw_psl.1.0.0.UPF
     MD5 check sum: 8b7b5302570d38d5e87fed6a1065abda
     Pseudo is Projector augmented-wave + core cor, Zval =  6.0
     Generated using 'atomic' code by A. Dal Corso  v.7.2
     Shape of augmentation charge: PSQ
     Using radial grid of 1151 points,  6 beta functions with:
                l(1) =   0
                l(2) =   0
                l(3) =   1
                l(4) =   1
                l(5) =   2
                l(6) =   2
     Q(r) pseudized with 0 coefficients

     PseudoPot. # 3 for Pt read from file:
     ./pseudo/Pt.pbe-spfn-kjpaw_psl.1.0.0.UPF
     MD5 check sum: 620096ebf4e6ebacc94de60fd67efcb5
     Pseudo is Projector augmented-wave + core cor, Zval = 32.0
     Generated using 'atomic' code by A. Dal Corso  v.7.2
     Shape of augmentation charge: PSQ
     Using radial grid of 1277 points,  8 beta functions with:
                l(1) =   0
                l(2) =   0
                l(3) =   1
                l(4) =   1
                l(5) =   2
                l(6) =   2
                l(7) =   3
                l(8) =   3
     Q(r) pseudized with 0 coefficients

     PseudoPot. # 4 for Pd read from file:
     ./pseudo/Pd.pbe-spn-kjpaw_psl.1.0.0.UPF
     MD5 check sum: a60571a671f2502b8a6a4569d20a6edb
     Pseudo is Projector augmented-wave + core cor, Zval = 18.0
     Generated using 'atomic' code by A. Dal Corso  v.7.2
     Shape of augmentation charge: PSQ
     Using radial grid of 1235 points,  6 beta functions with:
                l(1) =   0
                l(2) =   0
                l(3) =   1
                l(4) =   1
                l(5) =   2
                l(6) =   2
     Q(r) pseudized with 0 coefficients

     atomic species   valence    mass     pseudopotential
     Mo               14.00    95.95000     Mo( 1.00)
     S                 6.00    32.06000     S ( 1.00)
     Pt               32.00   195.08400     Pt( 1.00)
     Pd               18.00   106.42000     Pd( 1.00)

     No symmetry found

   Cartesian axes

     site n.     atom                  positions (alat units)
         1        Mo     tau(   1) = (   0.0000010   0.1443372  -0.7272732  )
         2        Mo     tau(   2) = (   0.1249995   0.0721706  -0.2424038  )
         3        S      tau(   3) = (   0.0000015   0.1443386  -0.3667807  )
         4        S      tau(   4) = (   0.1250010   0.0721682  -0.6030489  )
         5        S      tau(   5) = (   0.1250010   0.0721683  -0.8514963  )
         6        S      tau(   6) = (   0.0000015   0.1443389  -0.1180260  )
         7        Mo     tau(   7) = (   0.0000165   0.1443639   0.2424458  )
         8        Mo     tau(   8) = (   0.1250235   0.0717246   0.7263406  )
         9        S      tau(   9) = (   0.0005369   0.1448386   0.6015218  )
        10        S      tau(  10) = (   0.1249954   0.0721618   0.3668135  )
        11        S      tau(  11) = (   0.1250195   0.0721779   0.1180823  )
        12        S      tau(  12) = (  -0.0003270   0.1431025   0.8512079  )
        13        Mo     tau(  13) = (  -0.1249989   0.3608437  -0.7272732  )
        14        Mo     tau(  14) = (   0.0000030   0.2886752  -0.2424042  )
        15        S      tau(  15) = (  -0.1249977   0.3608450  -0.3667802  )
        16        S      tau(  16) = (   0.0000012   0.2886747  -0.6030489  )
        17        S      tau(  17) = (   0.0000012   0.2886748  -0.8514963  )
        18        S      tau(  18) = (  -0.1249977   0.3608454  -0.1180274  )
        19        Mo     tau(  19) = (  -0.1249838   0.3608611   0.2424564  )
        20        Mo     tau(  20) = (  -0.0010112   0.2875499   0.7275042  )
        21        S      tau(  21) = (  -0.1249589   0.3614723   0.6028911  )
        22        S      tau(  22) = (   0.0000229   0.2887164   0.3668462  )
        23        S      tau(  23) = (   0.0000319   0.2887039   0.1180849  )
        24        S      tau(  24) = (  -0.1254179   0.3601432   0.8519775  )
        25        Mo     tau(  25) = (  -0.2499987   0.5773502  -0.7272732  )
        26        Mo     tau(  26) = (  -0.1249977   0.5051839  -0.2424055  )
        27        S      tau(  27) = (  -0.2499981   0.5773518  -0.3667809  )
        28        S      tau(  28) = (  -0.1249986   0.5051812  -0.6030489  )
        29        S      tau(  29) = (  -0.1249986   0.5051813  -0.8514963  )
        30        S      tau(  30) = (  -0.2499979   0.5773512  -0.1180266  )
        31        Mo     tau(  31) = (  -0.2499892   0.5773423   0.2424725  )
        32        Mo     tau(  32) = (  -0.1256606   0.5052028   0.7286154  )
        33        S      tau(  33) = (  -0.2498226   0.5768374   0.6031862  )
        34        S      tau(  34) = (  -0.1249521   0.5051863   0.3668519  )
        35        S      tau(  35) = (  -0.1249975   0.5051799   0.1180722  )
        36        S      tau(  36) = (  -0.2499767   0.5778459   0.8528940  )
        37        Mo     tau(  37) = (  -0.3749985   0.7938567  -0.7272732  )
        38        Mo     tau(  38) = (  -0.2500001   0.7216874  -0.2424031  )
        39        S      tau(  39) = (  -0.3749980   0.7938584  -0.3667800  )
        40        S      tau(  40) = (  -0.2499984   0.7216877  -0.6030489  )
        41        S      tau(  41) = (  -0.2499984   0.7216878  -0.8514963  )
        42        S      tau(  42) = (  -0.3749982   0.7938585  -0.1180264  )
        43        Mo     tau(  43) = (  -0.3749918   0.7938447   0.2424454  )
        44        Mo     tau(  44) = (  -0.2499337   0.7214685   0.7273252  )
        45        S      tau(  45) = (  -0.3749119   0.7930997   0.6024017  )
        46        S      tau(  46) = (  -0.2499835   0.7216794   0.3668152  )
        47        S      tau(  47) = (  -0.2499982   0.7216718   0.1180690  )
        48        S      tau(  48) = (  -0.3745581   0.7945239   0.8516564  )
        49        Mo     tau(  49) = (   0.2500010   0.1443372  -0.7272732  )
        50        Mo     tau(  50) = (   0.3750034   0.0721723  -0.2424032  )
        51        S      tau(  51) = (   0.2500017   0.1443391  -0.3667788  )
        52        S      tau(  52) = (   0.3750010   0.0721682  -0.6030489  )
        53        S      tau(  53) = (   0.3750010   0.0721683  -0.8514963  )
        54        S      tau(  54) = (   0.2500016   0.1443391  -0.1180271  )
        55        Mo     tau(  55) = (   0.2500049   0.1443558   0.2424800  )
        56        Mo     tau(  56) = (   0.3750695   0.0717200   0.7264262  )
        57        S      tau(  57) = (   0.2500704   0.1440362   0.6019475  )
        58        S      tau(  58) = (   0.3750099   0.0721483   0.3668106  )
        59        S      tau(  59) = (   0.3749948   0.0721851   0.1180824  )
        60        S      tau(  60) = (   0.2500131   0.1413211   0.8516135  )
[...]
       181        Mo     tau( 181) = (   0.3750016   0.7938567  -0.7272732  )
       182        Mo     tau( 182) = (   0.5000025   0.7216901  -0.2424039  )
       183        S      tau( 183) = (   0.3750019   0.7938578  -0.3667793  )
       184        S      tau( 184) = (   0.5000016   0.7216877  -0.6030489  )
       185        S      tau( 185) = (   0.5000016   0.7216878  -0.8514963  )
       186        S      tau( 186) = (   0.3750020   0.7938579  -0.1180272  )
       187        Mo     tau( 187) = (   0.3750095   0.7938535   0.2424732  )
       188        Mo     tau( 188) = (   0.5004392   0.7222160   0.7277389  )
       189        S      tau( 189) = (   0.3766340   0.7948794   0.6008559  )
       190        S      tau( 190) = (   0.5000179   0.7216263   0.3668038  )
       191        S      tau( 191) = (   0.4999965   0.7216810   0.1180753  )
       192        S      tau( 192) = (   0.3755295   0.7963504   0.8505132  )
       193        Pt     tau( 193) = (   0.1371069   0.5032381   0.9573497  )
       194        Pt     tau( 194) = (   0.3635722   0.5033563   0.9571359  )
       195        Pd     tau( 195) = (   0.2500603   0.2862366   0.9825498  )

     DFT-D3 Dispersion Correction (3-body terms):
       Reference C6 values for interpolation:

[...]
   -40.7521 -40.7446 -40.7403 -40.7403 -40.7402 -40.7402 -40.7402 -40.7402
   -40.7401 -40.7399 -40.7393 -40.7393 -40.7393 -40.7393 -40.7242 -40.7196
   -40.7166 -40.7134 -40.7055 -40.7055 -40.7055 -40.7055 -40.7055 -40.7054
   -40.7054 -40.7054 -40.7045 -40.7045 -40.7045 -40.7045 -40.6934 -40.6933
   -40.6933 -40.6931 -40.6924 -40.6924 -40.6827 -40.6804 -40.6783 -40.6751
   -40.6740 -40.6740 -40.6739 -40.6739 -40.6731 -40.6731 -40.6671 -40.6570
   -40.6570 -40.6570 -40.6569 -40.6560 -40.6560 -40.6530 -40.6510 -40.6403
   -40.6263 -40.6263 -40.6263 -40.6263 -40.6262 -40.6253 -40.6253 -40.6070
   -40.6023 -40.5827 -20.3185 -20.0029 -19.9407 -19.9292 -19.8473 -19.8314
   -19.7976 -19.7306 -19.7242 -19.5981 -19.5051 -19.4992 -19.4206 -19.4068
   -19.3804 -19.3075 -19.3016 -19.1876 -19.0832 -18.8710 -18.8608 -18.8456
   -18.7949 -18.7941 -18.7930 -18.7870 -18.7795 -18.7528 -18.7345 -18.7261
   -18.7196 -18.7135 -18.6842 -18.6598 -18.6570 -18.6296 -18.6282 -18.6190
   -18.6140 -18.6030 -18.5964 -18.5651 -18.5608 -18.5481 -18.5407 -18.5114
   -18.4909 -18.4850 -18.4818 -18.4761 -18.4620 -18.4530 -18.4236 -18.4089
   -18.4029 -18.3887 -18.3377 -18.3358 -18.3220 -18.3101 -18.2817 -18.2768
   -18.2652 -18.2407 -18.2371 -18.2111 -18.2016 -18.1861 -18.1736 -18.1708
   -18.1687 -18.1681 -18.1602 -18.1461 -18.1441 -18.1422 -18.1399 -18.1367
   -18.1346 -18.1273 -18.1235 -18.1186 -18.1114 -18.1020 -18.0840 -18.0797
   -18.0764 -18.0724 -18.0713 -18.0682 -18.0675 -18.0624 -18.0597 -18.0497
   -18.0300 -18.0140 -18.0099 -18.0057 -18.0018 -17.9959 -17.9672 -17.9609
   -17.9572 -17.9506 -17.9374 -17.9305 -17.9179 -17.9139 -17.9094 -17.9088
   -17.8896 -17.8886 -17.8882 -17.8881 -17.8873 -17.8868 -17.8746 -17.8740
   -17.8548 -17.8543 -17.8304 -17.8300 -17.8113 -17.8104 -17.7966 -17.7959
   -17.7889 -17.7888 -12.4302 -12.2493 -12.0349 -11.8950 -11.8654 -11.8224
   -11.7752 -11.7086 -11.6583 -11.5966 -11.5795 -11.5756 -11.5699 -11.5663
   -11.5521 -11.5355 -11.5118 -11.5046 -11.4777 -11.4646 -11.4567 -11.4410
   -11.4259 -11.4218 -11.4044 -11.3859 -11.3842 -11.3664 -11.3529 -11.3432
   -11.3394 -11.3338 -11.3323 -11.3252 -11.3218 -11.2807 -11.2757 -11.2707
   -11.2686 -11.2604 -11.2439 -11.2407 -11.2338 -11.2186 -11.2174 -11.2114
   -11.2088 -11.1927 -11.1805 -11.1631 -11.1529 -11.1448 -11.0993 -11.0928
   -11.0558 -11.0466 -11.0325 -11.0194 -11.0101 -10.9989 -10.9893 -10.9744
   -10.9591 -10.9422 -10.9155 -10.9116 -10.9062 -10.8990 -10.8945 -10.8902
[...]
    -3.4519  -3.4253  -3.4205  -3.4196  -3.4173  -3.4131  -3.4073  -3.4064
    -3.3838  -3.3756  -3.3706  -3.3559  -3.3507  -3.3492  -3.3476  -3.3435
    -3.3417  -3.3403  -3.3248  -3.3148  -3.3113  -3.3107  -3.3037  -3.2965
    -3.2888  -3.2868  -3.2793  -3.2782  -3.2773  -3.2671  -3.2555  -3.2534
    -3.2458  -3.2391  -3.2357  -3.2297  -3.2296  -3.2219  -3.2119  -3.1969
    -3.1777  -3.1697  -3.1593  -3.1534  -3.1441  -3.1306  -3.1265  -3.1076
    -3.0945  -3.0916  -3.0904  -3.0886  -3.0882  -3.0876  -3.0825  -3.0740
    -3.0738  -3.0727  -3.0692  -3.0668  -3.0551  -3.0534  -3.0511  -3.0481
    -3.0457  -3.0383  -3.0348  -3.0333  -3.0287  -3.0171  -3.0147  -3.0126
    -3.0085  -2.9998  -2.9972  -2.9949  -2.9923  -2.9734  -2.9675  -2.9612
    -2.9538  -2.9475  -2.9451  -2.9328  -2.9213  -2.8761  -2.8646  -2.8571
    -2.8549  -2.8286  -2.8198  -2.7972  -2.7850  -2.7054  -2.6952  -2.6784
    -2.6621  -2.6531  -2.6401  -2.6379  -2.6235  -2.6163  -2.6107  -2.6030
    -2.5956  -2.5939  -2.5921  -2.5670  -2.5511  -2.5144  -2.4873  -2.4769
    -2.4676  -2.4585  -2.4551  -2.4513  -2.4468  -2.4423  -2.4153  -2.4132

     the Fermi energy is    -4.8301 ev

!    total energy              =  -35654.95848440 Ry
     total all-electron energy =   -704233.504302 Ry
     estimated scf accuracy    <          8.0E-09 Ry
     smearing contrib. (-TS)   =      -0.00000096 Ry
     internal energy E=F+TS    =  -35654.95848344 Ry

     The total energy is F=E-TS. E is the sum of the following terms:
     one-electron contribution = 1222376.34824891 Ry
     hartree contribution      = -611407.81107922 Ry
     xc contribution           =   -2086.46429264 Ry
     ewald contribution        = -622637.69020454 Ry
     DFT-D3 Dispersion         =      -5.47527009 Ry
     one-center paw contrib.   =  -21893.86588588 Ry

     convergence has been achieved in  11 iterations

     negative rho (up, down):  9.069E-04 0.000E+00

     Forces acting on atoms (cartesian axes, Ry/au):

     atom    1 type  1   force =     0.00000079   -0.00000348    0.00068829
     atom    2 type  1   force =     0.00002382   -0.00000880    0.00000283
     atom    3 type  2   force =     0.00000137   -0.00000347    0.00000079
     atom    4 type  2   force =    -0.00000046   -0.00000306    0.00161544
     atom    5 type  2   force =    -0.00000083   -0.00000358   -0.00235982
     atom    6 type  2   force =     0.00000299    0.00000476    0.00000590
     atom    7 type  1   force =     0.00000730    0.00000073    0.00000830
     atom    8 type  1   force =    -0.00019328   -0.00024808    0.00014050
     atom    9 type  2   force =     0.00049759   -0.00016199   -0.00000024
     atom   10 type  2   force =     0.00002355    0.00000440    0.00002521
     atom   11 type  2   force =     0.00000902   -0.00000164    0.00001475
     atom   12 type  2   force =    -0.00008998    0.00024217   -0.00000231
     atom   13 type  1   force =     0.00000123   -0.00000412    0.00068861
     atom   14 type  1   force =    -0.00000836    0.00001023   -0.00000217
     atom   15 type  2   force =     0.00000327   -0.00000297    0.00000312
     atom   16 type  2   force =    -0.00000045   -0.00000301    0.00161543
     atom   17 type  2   force =    -0.00000071   -0.00000350   -0.00236009
     atom   18 type  2   force =     0.00001091   -0.00000205    0.00000104
     atom   19 type  1   force =    -0.00000128   -0.00000861    0.00002546
     atom   20 type  1   force =     0.00000966    0.00017793    0.00016735
     atom   21 type  2   force =    -0.00054746    0.00046306   -0.00040192
     atom   22 type  2   force =     0.00001501   -0.00001005    0.00003694
     atom   23 type  2   force =    -0.00000448   -0.00000211    0.00003125
     atom   24 type  2   force =     0.00003993   -0.00016579   -0.00000214
     atom   25 type  1   force =     0.00000084   -0.00000391    0.00068887
     atom   26 type  1   force =     0.00000058   -0.00001254    0.00001640
     atom   27 type  2   force =     0.00000072   -0.00000095    0.00000056
     atom   28 type  2   force =    -0.00000041   -0.00000285    0.00161540
     atom   29 type  2   force =    -0.00000075   -0.00000344   -0.00235986
     atom   30 type  2   force =     0.00000220   -0.00000503    0.00000003
     atom   31 type  1   force =     0.00000291    0.00000019    0.00003360
     atom   32 type  1   force =    -0.00010670   -0.00014363    0.00000995
     atom   33 type  2   force =     0.00001970   -0.00030254    0.00001024
     atom   34 type  2   force =    -0.00000667    0.00000058    0.00000742
     atom   35 type  2   force =    -0.00002896   -0.00000763    0.00001951
     atom   36 type  2   force =    -0.00000752   -0.00000124    0.00010868
     atom   37 type  1   force =     0.00000118   -0.00000381    0.00068937
     atom   38 type  1   force =     0.00002601    0.00002001   -0.00000812
     atom   39 type  2   force =     0.00000007   -0.00000235    0.00000466
     atom   40 type  2   force =    -0.00000040   -0.00000283    0.00161534
     atom   41 type  2   force =    -0.00000068   -0.00000346   -0.00235970
     atom   42 type  2   force =    -0.00000071   -0.00000023    0.00000296
     atom   43 type  1   force =     0.00001972    0.00000079    0.00001299
     atom   44 type  1   force =    -0.00000577   -0.00016455   -0.00017411
     atom   45 type  2   force =     0.00025810    0.00010377   -0.00018760
     atom   46 type  2   force =     0.00000002    0.00000568    0.00005629
     atom   47 type  2   force =     0.00000207   -0.00001333    0.00002728
     atom   48 type  2   force =     0.00008487   -0.00052674    0.00003532
     atom   49 type  1   force =     0.00000078   -0.00000341    0.00068840
     atom   50 type  1   force =    -0.00002184   -0.00002751   -0.00000237
     atom   51 type  2   force =    -0.00000041   -0.00000166    0.00000617
     atom   52 type  2   force =    -0.00000073   -0.00000314    0.00161565
     atom   53 type  2   force =    -0.00000081   -0.00000359   -0.00235984
     atom   54 type  2   force =    -0.00000087    0.00000335    0.00001761
     atom   55 type  1   force =     0.00000118    0.00000319    0.00001994
     atom   56 type  1   force =     0.00019533   -0.00025660    0.00012283
     atom   57 type  2   force =    -0.00000709    0.00057557    0.00055293
     atom   58 type  2   force =    -0.00002073    0.00000616    0.00002408
     atom   59 type  2   force =    -0.00000854   -0.00000244    0.00001799
     atom   60 type  2   force =     0.00000511   -0.00020241    0.00024117
[...]
     atom  181 type  1   force =     0.00000114   -0.00000385    0.00068848
     atom  182 type  1   force =    -0.00001030   -0.00001010    0.00000447
     atom  183 type  2   force =    -0.00000201   -0.00000469    0.00000422
     atom  184 type  2   force =    -0.00000042   -0.00000293    0.00161549
     atom  185 type  2   force =    -0.00000064   -0.00000340   -0.00235985
     atom  186 type  2   force =    -0.00000747   -0.00000698    0.00000427
     atom  187 type  1   force =    -0.00000623   -0.00000547    0.00002392
     atom  188 type  1   force =     0.00009443    0.00008652   -0.00011088
     atom  189 type  2   force =    -0.00051276   -0.00008941    0.00025741
     atom  190 type  2   force =     0.00002554   -0.00000794   -0.00001304
     atom  191 type  2   force =    -0.00000506   -0.00000689    0.00001489
     atom  192 type  2   force =    -0.00035660   -0.00032426   -0.00005829
     atom  193 type  3   force =    -0.00049224    0.00024441    0.00066200
     atom  194 type  3   force =     0.00058954    0.00024695    0.00059561
     atom  195 type  4   force =     0.00001902   -0.00088354   -0.00029511

     Total force =     0.003842     Total SCF correction =     0.000788
     SCF correction compared to forces is large: reduce conv_thr to get better values
     Energy error            =      3.0E-05 Ry
     Gradient error          =      9.3E-04 Ry/Bohr

     bfgs converged in  20 scf cycles and  19 bfgs steps
     (criteria: energy <  1.0E-04 Ry, force <  1.0E-03 Ry/Bohr)

     End of BFGS Geometry Optimization

     Final energy             =  -35654.9584844004 Ry

     File ./outdir/pwscf.bfgs deleted, as requested
Begin final coordinates

ATOMIC_POSITIONS (angstrom)
Mo               0.0000119917        1.8193638619       -9.1672481230    0   0   0
Mo               1.5756136568        0.9097075315       -3.0554901653    0   0   0
S                0.0000188998        1.8193822938       -4.6232556019    0   0   0
S                1.5756321638        0.9096773839       -7.6014065489    0   0   0
S                1.5756326175        0.9096785128      -10.7330757790    0   0   0
S                0.0000189190        1.8193860094       -1.4877129945    0   0   0
Mo               0.0003818739        1.8197004963        3.0571053375
Mo               1.5742386875        0.8998002584        9.1725888417
S                0.0083127897        1.8074296429        7.5739492340
S                1.5762066789        0.9094930404        4.6244852173
S                1.5757825358        0.9100778190        1.4890441298
S               -0.0177153173        1.8043447174       10.7231956057
Mo              -1.5756053507        4.5484193819       -9.1672481230    0   0   0
Mo               0.0000378379        3.6387394919       -3.0554952701    0   0   0
S               -1.5755913433        4.5484363582       -4.6232494962    0   0   0
S                0.0000148214        3.6387329039       -7.6014065489    0   0   0
S                0.0000152751        3.6387340328      -10.7330757790    0   0   0
S               -1.5755906502        4.5484413613       -1.4877305502    0   0   0
Mo              -1.5752866918        4.5489356960        3.0568874869
Mo              -0.0389048266        3.6140897035        9.1490015787
S               -1.5818520577        4.5644382992        7.5814561783
S                0.0001676733        3.6392599622        4.6252248917
S                0.0007003724        3.6392223368        1.4895593600
S               -1.5931351693        4.5355394890       10.7276056274
Mo              -3.1512226931        7.2774749019       -9.1672481230    0   0   0
Mo              -1.5755910988        6.3678216792       -3.0555115988    0   0   0
S               -3.1512162438        7.2774954350       -4.6232578178    0   0   0
S               -1.5756025210        6.3677884239       -7.6014065489    0   0   0
S               -1.5756020673        6.3677895528      -10.7330757790    0   0   0
S               -3.1512127704        7.2774877076       -1.4877200710    0   0   0
Mo              -3.1511020322        7.2777572013        3.0564980076
Mo              -1.5837708048        6.3703271158        9.1836163360
S               -3.1504891233        7.2802657816        7.6091704115
S               -1.5751894784        6.3685834381        4.6244611828
S               -1.5752048114        6.3680131154        1.4888196864
S               -3.1501186246        7.2793436494       10.7562128524
Mo              -4.7268400355       10.0065304219       -9.1672481230    0   0   0
Mo              -3.1512405618        9.0968403586       -3.0554816746    0   0   0
S               -4.7268341792       10.0065523623       -4.6232463762    0   0   0
S               -3.1512198634        9.0968439439       -7.6014065489    0   0   0
S               -3.1512194097        9.0968450728      -10.7330757790    0   0   0
S               -4.7268370797       10.0065537885       -1.4877176751    0   0   0
Mo              -4.7266807481       10.0065444483        3.0564674261
Mo              -3.1502171786        9.0962561890        9.1813295602
S               -4.7244040747        9.9990029851        7.6060702953
S               -3.1510834844        9.0969348453        4.6241191155
S               -3.1511050194        9.0970230702        1.4885154711
S               -4.7256765150       10.0102996554       10.7512704699
Mo               3.1512517547        1.8193638619       -9.1672481230    0   0   0
Mo               4.7269020221        0.9097289540       -3.0554823951    0   0   0
S                3.1512612351        1.8193882564       -4.6232320683    0   0   0
S                4.7268719268        0.9096773839       -7.6014065489    0   0   0
S                4.7268723805        0.9096785128      -10.7330757790    0   0   0
S                3.1512592485        1.8193890201       -1.4877261251    0   0   0
Mo               3.1513831066        1.8197250355        3.0569010352
Mo               4.7302812111        0.8998623861        9.1725747607
S                3.1522619488        1.8223842014        7.6211560049
S                4.7265638742        0.9094896343        4.6244878537
S                4.7269734062        0.9100859247        1.4890374283
S                3.1522518513        1.7272579725       10.8019381948
[...]
Mo               4.7268792535       10.0065304219       -9.1672481230    0   0   0
Mo               6.3025111524        9.0968738021       -3.0554915260    0   0   0
S                4.7268840634       10.0065452125       -4.6232380477    0   0   0
S                6.3024994256        9.0968439439       -7.6014065489    0   0   0
S                6.3024998793        9.0968450728      -10.7330757790    0   0   0
S                4.7268847312       10.0065459141       -1.4877283294    0   0   0
Mo               4.7270801710       10.0065010070        3.0568589436
Mo               6.3090159085        9.1017711536        9.1825740609
S                4.7494062266       10.0072404977        7.5749467633
S                6.3028834257        9.0964248253        4.6242825561
S                6.3024471050        9.0969022483        1.4887804000
S                4.7294871453       10.0365982576       10.7244595606
Pt               1.6989360295        6.3192040109       12.0825282467
Pt               4.6041415313        6.3191228496       12.0829452673
Pd               3.1520315431        3.7310904460       12.1893353976
End final coordinates

     Writing all to output data dir ./outdir/pwscf.save/ :
     XML data file, charge density, pseudopotentials, collected wavefunctions

     General routines

     Parallel routines

   This run was terminated on:  16:57:16   7Apr2024

   JOB DONE.