     Program PWSCF v.7.2 starts on 29Aug2023 at  3:26:58

     Waiting for input...
     Reading input from standard input
Warning: card &CELL ignored
Warning: card / ignored

     Current dimensions of program PWSCF are:
     Max number of different atomic species (ntypx) = 10
     Max number of k-points (npk) =  40000
     Max angular momentum in pseudopotentials (lmaxx) =  4
     file Mo.pbe-spn-kjpaw_psl.1.0.0.UPF: wavefunction(s)  4S 4D renormalized
     file S.pbe-n-kjpaw_psl.1.0.0.UPF: wavefunction(s)  3S 3P renormalized
     file Pd.pbe-spn-kjpaw_psl.1.0.0.UPF: wavefunction(s)  4S 5S 4D renormalized
     file H.pbe-kjpaw_psl.1.0.0.UPF: wavefunction(s)  1S renormalized

     R & G space division:  proc/nbgrp/npool/nimage =      36
     Subspace diagonalization in iterative solution of the eigenvalue problem:
     one sub-group per band group will be used

     Using Slab Decomposition

     bravais-lattice index     =            0
     lattice parameter (alat)  =      23.8395  a.u.
     unit-cell volume          =   28182.8498 (a.u.)^3
     number of atoms/cell      =          146
     number of atomic types    =            4
     number of electrons       =      1267.00
     number of Kohn-Sham states=          761
     kinetic-energy cutoff     =      77.0000  Ry
     charge density cutoff     =     539.0000  Ry
     scf convergence threshold =      1.0E-06
     mixing beta               =       0.2000
     number of iterations used =            8  plain     mixing
     energy convergence thresh.=      1.0E-04
     force convergence thresh. =      1.0E-03
     Exchange-correlation= SLA  PW   PBX  PBC
                           (   1   4   3   4   0   0   0)
     nstep                     =         1000

     Effective Screening Medium Method
     Boundary Conditions: Vacuum-Slab-Vacuum
     total charge in unit cell        =   0.0000
     grid points for fit at edges     =        4

     celldm(1)=  23.839504  celldm(2)=   0.000000  celldm(3)=   0.000000
     celldm(4)=   0.000000  celldm(5)=   0.000000  celldm(6)=   0.000000

     crystal axes: (cart. coord. in units of alat)
               a(1) = (   1.000000   0.000000   0.000000 )
               a(2) = (  -0.500001   0.866026   0.000000 )
               a(3) = (   0.000000   0.000000   2.401941 )

     reciprocal axes: (cart. coord. in units 2 pi/alat)
               b(1) = (  1.000000  0.577351  0.000000 )
               b(2) = (  0.000000  1.154700  0.000000 )
               b(3) = (  0.000000  0.000000  0.416330 )

     PseudoPot. # 1 for Mo read from file:
     ./pseudo/Mo.pbe-spn-kjpaw_psl.1.0.0.UPF
     MD5 check sum: 317bf72632116215fd98f72de1686f13
     Pseudo is Projector augmented-wave + core cor, Zval = 14.0
     Generated using 'atomic' code by A. Dal Corso  v.7.2
     Shape of augmentation charge: PSQ
     Using radial grid of 1229 points,  6 beta functions with:
                l(1) =   0
                l(2) =   0
                l(3) =   1
                l(4) =   1
                l(5) =   2
                l(6) =   2
     Q(r) pseudized with 0 coefficients

     PseudoPot. # 2 for S  read from file:
     ./pseudo/S.pbe-n-kjpaw_psl.1.0.0.UPF
     MD5 check sum: 8b7b5302570d38d5e87fed6a1065abda
     Pseudo is Projector augmented-wave + core cor, Zval =  6.0
     Generated using 'atomic' code by A. Dal Corso  v.7.2
     Shape of augmentation charge: PSQ
     Using radial grid of 1151 points,  6 beta functions with:
                l(1) =   0
                l(2) =   0
                l(3) =   1
                l(4) =   1
                l(5) =   2
                l(6) =   2
     Q(r) pseudized with 0 coefficients

     PseudoPot. # 3 for Pd read from file:
     ./pseudo/Pd.pbe-spn-kjpaw_psl.1.0.0.UPF
     MD5 check sum: a60571a671f2502b8a6a4569d20a6edb
     Pseudo is Projector augmented-wave + core cor, Zval = 18.0
     Generated using 'atomic' code by A. Dal Corso  v.7.2
     Shape of augmentation charge: PSQ
     Using radial grid of 1235 points,  6 beta functions with:
                l(1) =   0
                l(2) =   0
                l(3) =   1
                l(4) =   1
                l(5) =   2
                l(6) =   2
     Q(r) pseudized with 0 coefficients

     PseudoPot. # 4 for H  read from file:
     ./pseudo/H.pbe-kjpaw_psl.1.0.0.UPF
     MD5 check sum: b3cb3c48ee3b58cc53e4d592112d0ca6
     Pseudo is Projector augmented-wave, Zval =  1.0
     Generated using 'atomic' code by A. Dal Corso  v.7.2
     Shape of augmentation charge: PSQ
     Using radial grid of  929 points,  2 beta functions with:
                l(1) =   0
                l(2) =   0
     Q(r) pseudized with 0 coefficients

     atomic species   valence    mass     pseudopotential
        Mo            14.00    95.95000     Mo( 1.00)
        S              6.00    32.06000     S ( 1.00)
        Pd            18.00   106.42000     Pd( 1.00)
        H              1.00     1.00800     H ( 1.00)

     No symmetry found

   Cartesian axes

     site n.     atom                  positions (alat units)
         1           Mo  tau(   1) = (   0.1244805   0.2154429   0.4826124  )
         2           Mo  tau(   2) = (   0.1250004   0.0721694  -0.4825273  )
         3           Mo  tau(   3) = (   0.0000154   0.1443583  -0.0000534  )
         4           S   tau(   4) = (   0.0000004   0.0000006  -0.6064556  )
         5           S   tau(   5) = (   0.1249822   0.0722030  -0.1241916  )
         6           S   tau(   6) = (   0.0001873   0.1444894   0.3573292  )
         7           S   tau(   7) = (   0.0000004   0.0000005  -0.3584711  )
         8           S   tau(   8) = (   0.1250220   0.0721432   0.1241096  )
         9           S   tau(   9) = (  -0.0009222   0.1433430   0.6062350  )
        10           Mo  tau(  10) = (  -0.0011812   0.4330952   0.4826123  )
        11           Mo  tau(  11) = (   0.0000001   0.2886759  -0.4825273  )
        12           Mo  tau(  12) = (  -0.1249761   0.3608493  -0.0000533  )
        13           S   tau(  13) = (  -0.1249999   0.2165071  -0.6064556  )
        14           S   tau(  14) = (   0.0000232   0.2886904  -0.1241345  )
        15           S   tau(  15) = (  -0.1247753   0.3609305   0.3573291  )
        16           S   tau(  16) = (  -0.1249998   0.2165070  -0.3584711  )
        17           S   tau(  17) = (   0.0000901   0.2887289   0.1242236  )
        18           S   tau(  18) = (  -0.1263226   0.3605428   0.6062351  )
        19           Mo  tau(  19) = (  -0.1251400   0.6495983   0.4819363  )
        20           Mo  tau(  20) = (  -0.1250002   0.5051824  -0.4825273  )
        21           Mo  tau(  21) = (  -0.2500026   0.5773383  -0.0001491  )
        22           S   tau(  22) = (  -0.2500002   0.4330136  -0.6064556  )
        23           S   tau(  23) = (  -0.1249812   0.5051509  -0.1241919  )
        24           S   tau(  24) = (  -0.2500015   0.5775831   0.3575295  )
        25           S   tau(  25) = (  -0.2500001   0.4330135  -0.3584711  )
        26           S   tau(  26) = (  -0.1250129   0.5052153   0.1241101  )
        27           S   tau(  27) = (  -0.2500018   0.5771934   0.6060379  )
        28           Mo  tau(  28) = (   0.2499987  -0.0001601   0.4819365  )
        29           Mo  tau(  29) = (  -0.2500004   0.7216889  -0.4825273  )
        30           Mo  tau(  30) = (  -0.3750135   0.7938631  -0.0001491  )
        31           S   tau(  31) = (  -0.3750004   0.6495201  -0.6064556  )
        32           S   tau(  32) = (  -0.2500026   0.7216883  -0.1242347  )
        33           S   tau(  33) = (  -0.3747997   0.7937400   0.3575295  )
        34           S   tau(  34) = (  -0.3750004   0.6495200  -0.3584711  )
        35           S   tau(  35) = (  -0.2500029   0.7216883   0.1240299  )
        36           S   tau(  36) = (  -0.3751376   0.7939346   0.6060379  )
        37           Mo  tau(  37) = (   0.3755166   0.2154425   0.4826119  )
        38           Mo  tau(  38) = (   0.3750004   0.0721694  -0.4825273  )
        39           Mo  tau(  39) = (   0.2499990   0.1443474  -0.0000968  )
        40           S   tau(  40) = (   0.2500004   0.0000006  -0.6064556  )
        41           S   tau(  41) = (   0.3750152   0.0722028  -0.1241921  )
        42           S   tau(  42) = (   0.2499983   0.1443201   0.3580593  )
        43           S   tau(  43) = (   0.2500004   0.0000005  -0.3584711  )
        44           S   tau(  44) = (   0.3749754   0.0721432   0.1241106  )
        45           S   tau(  45) = (   0.2499987   0.1437775   0.6065499  )
        46           Mo  tau(  46) = (   0.2499984   0.4330123   0.4872880  )
        47           Mo  tau(  47) = (   0.2500001   0.2886759  -0.4825273  )
        48           Mo  tau(  48) = (   0.1250277   0.3608616  -0.0000572  )
        49           S   tau(  49) = (   0.1250001   0.2165071  -0.6064556  )
        50           S   tau(  50) = (   0.2499987   0.2886898  -0.1241693  )
        51           S   tau(  51) = (   0.1266397   0.3617911   0.3615924  )
        52           S   tau(  52) = (   0.1250002   0.2165070  -0.3584711  )
        53           S   tau(  53) = (   0.2499988   0.2886671   0.1241958  )
        54           S   tau(  54) = (   0.1173054   0.3564020   0.6108885  )
        55           Mo  tau(  55) = (   0.1243363   0.6504991   0.4826116  )
        56           Mo  tau(  56) = (   0.1249998   0.5051824  -0.4825273  )
        57           Mo  tau(  57) = (   0.0000060   0.5773464  -0.0000969  )
        58           S   tau(  58) = (  -0.0000002   0.4330136  -0.6064556  )
        59           S   tau(  59) = (   0.1250101   0.5051751  -0.1241696  )
        60           S   tau(  60) = (  -0.0000165   0.5773581   0.3580590  )
[...]
       132           S   tau( 132) = (   0.5000130   0.5773585   0.3580587  )
       133           S   tau( 133) = (   0.4999999   0.4330135  -0.3584711  )
       134           S   tau( 134) = (   0.6250081   0.5052147   0.1241104  )
       135           S   tau( 135) = (   0.5004826   0.5776298   0.6065487  )
       136           Mo  tau( 136) = (  -0.0000706   0.0000401   0.4813070  )
       137           Mo  tau( 137) = (   0.4999996   0.7216889  -0.4825273  )
       138           Mo  tau( 138) = (   0.3749881   0.7938314  -0.0000535  )
       139           S   tau( 139) = (   0.3749996   0.6495201  -0.6064556  )
       140           S   tau( 140) = (   0.4999594   0.7216844  -0.1241918  )
       141           S   tau( 141) = (   0.3749610   0.7936184   0.3573285  )
       142           S   tau( 142) = (   0.3749996   0.6495200  -0.3584711  )
       143           S   tau( 143) = (   0.5000310   0.7216802   0.1241101  )
       144           S   tau( 144) = (   0.3753979   0.7951517   0.6062337  )
       145           Pd  tau( 145) = (   0.2499985   0.4330123   0.7148096  )
       146           H   tau( 146) = (  -0.0004756   0.5776309   0.7175401  )

     DFT-D3 Dispersion Correction (3-body terms):
       Reference C6 values for interpolation:

         atom   Coordination number   C6
         H          0.912             6.05
         H          0.000            15.18
         S          0.000           268.01
[...]
     atom   12 type  1   force =     0.00001419    0.00000349    0.00000992
     atom   13 type  2   force =     0.00000000    0.00000000    0.00000000
     atom   14 type  2   force =     0.00000291    0.00000147    0.00001003
     atom   15 type  2   force =     0.00000636    0.00000207    0.00000569
     atom   16 type  2   force =     0.00000000    0.00000000    0.00000000
     atom   17 type  2   force =    -0.00000100    0.00000531    0.00000620
     atom   18 type  2   force =    -0.00001467    0.00000432    0.00001393
     atom   19 type  1   force =     0.00007725   -0.00002412   -0.00002385
     atom   20 type  1   force =     0.00000000    0.00000000    0.00000000
     atom   21 type  1   force =     0.00000900    0.00001048    0.00001030
     atom   22 type  2   force =     0.00000000    0.00000000    0.00000000
     atom   23 type  2   force =     0.00000291    0.00000326    0.00000562
     atom   24 type  2   force =     0.00000834    0.00000479    0.00000629
     atom   25 type  2   force =     0.00000000    0.00000000    0.00000000
     atom   26 type  2   force =     0.00000999    0.00000314    0.00000809
     atom   27 type  2   force =     0.00000073   -0.00001441    0.00001742
     atom   28 type  1   force =     0.00000318   -0.00000664    0.00001801
     atom   29 type  1   force =     0.00000000    0.00000000    0.00000000
     atom   30 type  1   force =    -0.00000789   -0.00000181   -0.00000220
     atom   31 type  2   force =     0.00000000    0.00000000    0.00000000
     atom   32 type  2   force =     0.00000207   -0.00000109    0.00001291
     atom   33 type  2   force =    -0.00000195   -0.00000569    0.00001770
     atom   34 type  2   force =     0.00000000    0.00000000    0.00000000
     atom   35 type  2   force =     0.00000498   -0.00000304    0.00001012
     atom   36 type  2   force =    -0.00000901   -0.00000088    0.00001054
     atom   37 type  1   force =     0.00004072   -0.00001188    0.00001156
     atom   38 type  1   force =     0.00000000    0.00000000    0.00000000
     atom   39 type  1   force =    -0.00001815   -0.00001107    0.00000097
     atom   40 type  2   force =     0.00000000    0.00000000    0.00000000
     atom   41 type  2   force =    -0.00000394   -0.00000558    0.00000037
     atom   42 type  2   force =     0.00000574   -0.00000082    0.00000880
     atom   43 type  2   force =     0.00000000    0.00000000    0.00000000
     atom   44 type  2   force =     0.00000501   -0.00000292    0.00000975
     atom   45 type  2   force =     0.00000157   -0.00000197    0.00001954
     atom   46 type  1   force =    -0.00000181    0.00003696    0.00002004
     atom   47 type  1   force =     0.00000000    0.00000000    0.00000000
     atom   48 type  1   force =    -0.00000764    0.00001201    0.00000837
     atom   49 type  2   force =     0.00000000    0.00000000    0.00000000
     atom   50 type  2   force =    -0.00000477    0.00000117    0.00000015
     atom   51 type  2   force =    -0.00001349    0.00000801    0.00000087
     atom   52 type  2   force =     0.00000000    0.00000000    0.00000000
     atom   53 type  2   force =    -0.00000042    0.00000518    0.00000551
     atom   54 type  2   force =     0.00000266    0.00000045    0.00001770
     atom   55 type  1   force =    -0.00002918    0.00000838   -0.00003607
     atom   56 type  1   force =     0.00000000    0.00000000    0.00000000
     atom   57 type  1   force =     0.00001208    0.00000367   -0.00000973
     atom   58 type  2   force =     0.00000000    0.00000000    0.00000000
     atom   59 type  2   force =     0.00000160    0.00000282    0.00001109
     atom   60 type  2   force =     0.00000687    0.00001039    0.00000187
[...]
     atom  132 type  2   force =    -0.00000581    0.00000114    0.00001730
     atom  133 type  2   force =     0.00000000    0.00000000    0.00000000
     atom  134 type  2   force =    -0.00000017    0.00000036    0.00000975
     atom  135 type  2   force =    -0.00000755    0.00000486    0.00000972
     atom  136 type  1   force =    -0.00002371   -0.00001835    0.00003017
     atom  137 type  1   force =     0.00000000    0.00000000    0.00000000
     atom  138 type  1   force =    -0.00000606   -0.00000831   -0.00000121
     atom  139 type  2   force =     0.00000000    0.00000000    0.00000000
     atom  140 type  2   force =    -0.00000097    0.00000426    0.00000902
     atom  141 type  2   force =    -0.00001600   -0.00000751    0.00002687
     atom  142 type  2   force =     0.00000000    0.00000000    0.00000000
     atom  143 type  2   force =    -0.00000734   -0.00000357   -0.00000154
     atom  144 type  2   force =    -0.00000968   -0.00000614   -0.00000273
     atom  145 type  3   force =     0.00002598    0.00000546    0.00005289
     atom  146 type  4   force =     0.00000039    0.00000084   -0.00000273

     DFT-D3 dispersion contribution to forces:
     atom    1 type  1   force =     0.00011067    0.00020592   -0.00232502
     atom    2 type  1   force =     0.00000015   -0.00000024    0.00260453
     atom    3 type  1   force =    -0.00000699   -0.00000995   -0.00002126
     atom    4 type  2   force =     0.00000001   -0.00000000    0.00441169
     atom    5 type  2   force =     0.00000108   -0.00000146   -0.00004687
     atom    6 type  2   force =    -0.00000723   -0.00000061   -0.00014564
     atom    7 type  2   force =     0.00000057   -0.00000033    0.00023542
     atom    8 type  2   force =    -0.00000635   -0.00002298    0.00009092
     atom    9 type  2   force =     0.00017970    0.00022152   -0.00431451
     atom   10 type  1   force =     0.00023299    0.00008901   -0.00218655
     atom   11 type  1   force =     0.00000022    0.00000048    0.00260458
     atom   12 type  1   force =    -0.00000736   -0.00000051   -0.00002671
     atom   13 type  2   force =     0.00000002   -0.00000000    0.00441159
     atom   14 type  2   force =     0.00000003    0.00000088   -0.00004924
     atom   15 type  2   force =    -0.00000518   -0.00000722   -0.00014086
     atom   16 type  2   force =     0.00000075    0.00000058    0.00023523
     atom   17 type  2   force =    -0.00001044   -0.00000854    0.00009516
     atom   18 type  2   force =     0.00037041    0.00019212   -0.00424408
     atom   19 type  1   force =     0.00016384   -0.00009459   -0.00238111
     atom   20 type  1   force =     0.00000040    0.00000055    0.00260547
     atom   21 type  1   force =     0.00000281    0.00000273   -0.00001827
     atom   22 type  2   force =     0.00000001    0.00000002    0.00441169
     atom   23 type  2   force =    -0.00000111    0.00000151   -0.00004626
     atom   24 type  2   force =     0.00000042    0.00000007   -0.00018677
     atom   25 type  2   force =     0.00000069    0.00000107    0.00023529
     atom   26 type  2   force =    -0.00002028    0.00000784    0.00008297
     atom   27 type  2   force =     0.00016918   -0.00001023   -0.00432564
     atom   28 type  1   force =    -0.00000543    0.00009438   -0.00252740
     atom   29 type  1   force =     0.00000029   -0.00000017    0.00260526
     atom   30 type  1   force =    -0.00000090    0.00000051   -0.00001276
     atom   31 type  2   force =     0.00000007    0.00000005    0.00441180
     atom   32 type  2   force =     0.00000079   -0.00000045   -0.00004563
     atom   33 type  2   force =    -0.00000077    0.00000044   -0.00019231
     atom   34 type  2   force =     0.00000054    0.00000017    0.00023542
     atom   35 type  2   force =    -0.00000208    0.00000120    0.00009628
     atom   36 type  2   force =    -0.00001228    0.00000709   -0.00439714
     atom   37 type  1   force =    -0.00012288    0.00020516   -0.00233083
     atom   38 type  1   force =    -0.00000023   -0.00000043    0.00260443
     atom   39 type  1   force =    -0.00000139   -0.00001472   -0.00003560
     atom   40 type  2   force =    -0.00000001   -0.00000009    0.00441180
     atom   41 type  2   force =    -0.00000173   -0.00000246   -0.00004800
     atom   42 type  2   force =    -0.00000707    0.00002085   -0.00010185
     atom   43 type  2   force =     0.00000012   -0.00000056    0.00023542
     atom   44 type  2   force =    -0.00000138   -0.00002202    0.00008613
     atom   45 type  2   force =    -0.00000846    0.00039426   -0.00424146
     atom   46 type  1   force =    -0.00004931    0.00002844   -0.00760641
     atom   47 type  1   force =    -0.00000020    0.00000016    0.00260442
     atom   48 type  1   force =    -0.00001239   -0.00000387   -0.00005793
     atom   49 type  2   force =    -0.00000003   -0.00000000    0.00441161
     atom   50 type  2   force =    -0.00000120   -0.00000132   -0.00005353
     atom   51 type  2   force =     0.00003842    0.00002050    0.00014148
     atom   52 type  2   force =    -0.00000000    0.00000045    0.00023531
     atom   53 type  2   force =    -0.00000308   -0.00002130    0.00007685
     atom   54 type  2   force =    -0.00097154   -0.00037782   -0.00516344
     atom   55 type  1   force =     0.00003942   -0.00024626   -0.00218655
     atom   56 type  1   force =    -0.00000042    0.00000024    0.00260545
     atom   57 type  1   force =    -0.00001207    0.00000697   -0.00003623
     atom   58 type  2   force =    -0.00000000    0.00000004    0.00441176
     atom   59 type  2   force =    -0.00000064    0.00000037   -0.00005169
     atom   60 type  2   force =     0.00001987   -0.00001146   -0.00009107
[...]
     atom  132 type  2   force =    -0.00002160   -0.00000430   -0.00010185
     atom  133 type  2   force =    -0.00000027    0.00000044    0.00023493
     atom  134 type  2   force =     0.00001837    0.00001221    0.00008613
     atom  135 type  2   force =    -0.00034564   -0.00018979   -0.00424146
     atom  136 type  1   force =    -0.00001055    0.00000608   -0.00254663
     atom  137 type  1   force =     0.00000028   -0.00000001    0.00260453
     atom  138 type  1   force =     0.00000512    0.00001102   -0.00002126
     atom  139 type  2   force =    -0.00000001    0.00000003    0.00441161
     atom  140 type  2   force =     0.00000181   -0.00000020   -0.00004687
     atom  141 type  2   force =    -0.00000309    0.00000657   -0.00014563
     atom  142 type  2   force =    -0.00000039   -0.00000022    0.00023531
     atom  143 type  2   force =     0.00001673    0.00001699    0.00009093
     atom  144 type  2   force =    -0.00010199   -0.00026639   -0.00431450
     atom  145 type  3   force =    -0.00028948    0.00016728    0.00205693
     atom  146 type  4   force =     0.00016920   -0.00009769   -0.00137551

     Total force =     0.002829     Total SCF correction =     0.000240
     Energy error            =      2.3E-05 Ry
     Gradient error          =      9.1E-04 Ry/Bohr

     bfgs converged in   9 scf cycles and   8 bfgs steps
     (criteria: energy <  1.0E-04 Ry, force <  1.0E-03 Ry/Bohr)

     End of BFGS Geometry Optimization

     Final energy             =  -24358.2097595055 Ry

     File ./outdir/pwscf.bfgs deleted, as requested
Begin final coordinates

ATOMIC_POSITIONS (angstrom)
Mo            1.5712796312        2.7075235878        6.0879877158
Mo            1.5769197498        0.9104407117       -6.0872367793    0   0   0
Mo            0.0001138947        1.8205622934       -0.0004843266
S             0.0000044503        0.0000077495       -7.6506323570    0   0   0
S             1.5767686884        0.9109762478       -1.5669480905
S             0.0024604067        1.8197833636        4.5046706654
S             0.0000053241        0.0000068460       -4.5222282367    0   0   0
S             1.5771310187        0.9099709176        1.5659128411
S            -0.0116330760        1.8030567579        7.6498019220
Mo           -0.0139523803        5.4710935176        6.0996584979
Mo            0.0000011799        3.6417399547       -6.0872367793    0   0   0
Mo           -1.5761795334        4.5530890663       -0.0008624526
S            -1.5769141197        2.7313069925       -7.6506323570    0   0   0
S             0.0002071962        3.6415660518       -1.5660141957
S            -1.5648403465        4.5537762783        4.5126919500
S            -1.5769132459        2.7313060890       -4.5222282367    0   0   0
S             0.0010604863        3.6425671450        1.5671436907
S            -1.6034933662        4.5343126980        7.6525276080
Mo           -1.5741634721        8.1922891257        6.0876388037
Mo           -1.5769173901        6.3730391977       -6.0872367793    0   0   0
Mo           -3.1528806411        7.2834439210       -0.0023653647
S            -3.1538326896        5.4626062355       -7.6506323570    0   0   0
S            -1.5756304588        6.3731734028       -1.5677583862
S            -3.1504224643        7.2930165409        4.5130355676
S            -3.1538318159        5.4626053320       -4.5222282367    0   0   0
S            -1.5766941959        6.3738087841        1.5671709684
S            -3.1717744735        7.2805533724        7.6494715546
Mo            3.1449603260        0.0039666059        6.0789630425
Mo           -3.1538359601        9.1043384407       -6.0872367793    0   0   0
Mo           -4.7312168771       10.0150180456       -0.0018833882
S            -4.7307512596        8.1939054785       -7.6506323570    0   0   0
S            -3.1541134088        9.1044758792       -1.5676603676
S            -4.7310996125       10.0149461057        4.5063038579
S            -4.7307503859        8.1939045750       -4.5222282367    0   0   0
S            -3.1536848492        9.1042288510        1.5645965970
S            -4.7369392648       10.0183152013        7.6469966328
Mo            4.7373387290        2.7187761481        6.0857350071
Mo            4.7307503218        0.9104407117       -6.0872367793    0   0   0
Mo            3.1538183529        1.8211584962       -0.0007935779
S             3.1538350223        0.0000077495       -7.6506323570    0   0   0
S             4.7311743283        0.9107635284       -1.5666447135
S             3.1546225044        1.8226767976        4.5117126223
S             3.1538358961        0.0000068460       -4.5222282367    0   0   0
S             4.7304541418        0.9092541466        1.5654995823
S             3.1565525681        1.8157472188        7.6539159760
Mo            3.1527710466        5.4631927575        6.1472064660
Mo            3.1538317519        3.6417399547       -6.0872367793    0   0   0
Mo            1.5768368949        4.5533424583       -0.0010183792
S             1.5769164523        2.7313069925       -7.6506323570    0   0   0
S             3.1537976861        3.6423338536       -1.5664041978
S             1.5903113578        4.5646236840        4.5655933604
S             1.5769173261        2.7313060890       -4.5222282367    0   0   0
S             3.1531998209        3.6422481367        1.5667684444
S             1.4893878674        4.4794726470        7.7139302066
Mo            1.5625624886        8.2017082842        6.0996514351
Mo            1.5769131819        6.3730391977       -6.0872367793    0   0   0
Mo            0.0001844141        7.2833428216        0.0000032789
S            -0.0000021176        5.4626062355       -7.6506323570    0   0   0
S             1.5760817514        6.3734978592       -1.5675481572
S             0.0013996272        7.2826382721        4.5015892617
[...]
S             6.3064677783        7.2818486338        4.5117083038
S             6.3076599001        5.4626053320       -4.5222282367    0   0   0
S             7.8854335325        6.3738544187        1.5655003142
S             6.3134276367        7.2836444207        7.6539101182
Mo           -0.0007423498        0.0004130057        6.0712916956
Mo            6.3076557559        9.1043384407       -6.0872367793    0   0   0
Mo            4.7310451557       10.0147991821       -0.0004836111
S             4.7307404564        8.1939054785       -7.6506323570    0   0   0
S             6.3070958570        9.1041672998       -1.5669483719
S             4.7328890195       10.0131524154        4.5046631833
S             4.7307413301        8.1939045750       -4.5222282367    0   0   0
S             6.3081473726        9.1043557675        1.5659134770
S             4.7403225128       10.0337150453        7.6497986949
Pd            3.1473441144        5.4663450332        9.0230232247
H             0.0020310705        7.2823669257        9.0210789249
End final coordinates

     Writing all to output data dir ./outdir/pwscf.save/

     General routines

     Parallel routines

   This run was terminated on:  16:23: 4  29Aug2023

   JOB DONE.
Application 11110839 resources: utime ~1656413s, stime ~19881s, Rss ~2361376, inblocks ~0, outblocks ~33983552