     Program PWSCF v.7.2 starts on 14Aug2023 at 14:57:29

     Waiting for input...
     Reading input from standard input
Warning: card &CELL ignored
Warning: card / ignored

     Current dimensions of program PWSCF are:
     Max number of different atomic species (ntypx) = 10
     Max number of k-points (npk) =  40000
     Max angular momentum in pseudopotentials (lmaxx) =  4
     file Mo.pbe-spn-kjpaw_psl.1.0.0.UPF: wavefunction(s)  4S 4D renormalized
     file S.pbe-n-kjpaw_psl.1.0.0.UPF: wavefunction(s)  3S 3P renormalized
     file Pd.pbe-spn-kjpaw_psl.1.0.0.UPF: wavefunction(s)  4S 5S 4D renormalized

     R & G space division:  proc/nbgrp/npool/nimage =      36
     Subspace diagonalization in iterative solution of the eigenvalue problem:
     one sub-group per band group will be used

     Using Slab Decomposition

     bravais-lattice index     =            0
     lattice parameter (alat)  =      23.8199  a.u.
     unit-cell volume          =   33861.0370 (a.u.)^3
     number of atoms/cell      =          193
     number of atomic types    =            3
     number of electrons       =      1682.00
     number of Kohn-Sham states=         1009
     kinetic-energy cutoff     =      77.0000  Ry
     charge density cutoff     =     539.0000  Ry
     scf convergence threshold =      1.0E-06
     mixing beta               =       0.2000
     number of iterations used =            8  plain     mixing
     energy convergence thresh.=      1.0E-04
     force convergence thresh. =      1.0E-03
     Exchange-correlation= SLA  PW   PBX  PBC
                           (   1   4   3   4   0   0   0)
     nstep                     =         1000

     Effective Screening Medium Method
     Boundary Conditions: Vacuum-Slab-Vacuum
     total charge in unit cell        =   0.0000
     grid points for fit at edges     =        4

     celldm(1)=  23.819920  celldm(2)=   0.000000  celldm(3)=   0.000000
     celldm(4)=   0.000000  celldm(5)=   0.000000  celldm(6)=   0.000000

     crystal axes: (cart. coord. in units of alat)
               a(1) = (   1.000000   0.000000   0.000000 )
               a(2) = (  -0.499999   0.866026   0.000000 )
               a(3) = (   0.000000   0.000000   2.893000 )

     reciprocal axes: (cart. coord. in units 2 pi/alat)
               b(1) = (  1.000000  0.577349  0.000000 )
               b(2) = (  0.000000  1.154700  0.000000 )
               b(3) = (  0.000000  0.000000  0.345662 )

     PseudoPot. # 1 for Mo read from file:
     ./pseudo/Mo.pbe-spn-kjpaw_psl.1.0.0.UPF
     MD5 check sum: 317bf72632116215fd98f72de1686f13
     Pseudo is Projector augmented-wave + core cor, Zval = 14.0
     Generated using 'atomic' code by A. Dal Corso  v.7.2
     Shape of augmentation charge: PSQ
     Using radial grid of 1229 points,  6 beta functions with:
                l(1) =   0
                l(2) =   0
                l(3) =   1
                l(4) =   1
                l(5) =   2
                l(6) =   2
     Q(r) pseudized with 0 coefficients

     PseudoPot. # 2 for S  read from file:
     ./pseudo/S.pbe-n-kjpaw_psl.1.0.0.UPF
     MD5 check sum: 8b7b5302570d38d5e87fed6a1065abda
     Pseudo is Projector augmented-wave + core cor, Zval =  6.0
     Generated using 'atomic' code by A. Dal Corso  v.7.2
     Shape of augmentation charge: PSQ
     Using radial grid of 1151 points,  6 beta functions with:
                l(1) =   0
                l(2) =   0
                l(3) =   1
                l(4) =   1
                l(5) =   2
                l(6) =   2
     Q(r) pseudized with 0 coefficients

     PseudoPot. # 3 for Pd read from file:
     ./pseudo/Pd.pbe-spn-kjpaw_psl.1.0.0.UPF
     MD5 check sum: a60571a671f2502b8a6a4569d20a6edb
     Pseudo is Projector augmented-wave + core cor, Zval = 18.0
     Generated using 'atomic' code by A. Dal Corso  v.7.2
     Shape of augmentation charge: PSQ
     Using radial grid of 1235 points,  6 beta functions with:
                l(1) =   0
                l(2) =   0
                l(3) =   1
                l(4) =   1
                l(5) =   2
                l(6) =   2
     Q(r) pseudized with 0 coefficients

     atomic species   valence    mass     pseudopotential
        Mo            14.00    95.95000     Mo( 1.00)
        S              6.00    32.06000     S ( 1.00)
        Pd            18.00   106.42000     Pd( 1.00)

     No symmetry found

   Cartesian axes

     site n.     atom                  positions (alat units)
         1           Mo  tau(   1) = (   0.0000010   0.1443372  -0.7272732  )
         2           Mo  tau(   2) = (   0.1249995   0.0721706  -0.2424038  )
         3           S   tau(   3) = (   0.0000015   0.1443386  -0.3667807  )
         4           S   tau(   4) = (   0.1250010   0.0721682  -0.6030489  )
         5           S   tau(   5) = (   0.1250010   0.0721683  -0.8514963  )
         6           S   tau(   6) = (   0.0000015   0.1443389  -0.1180260  )
         7           Mo  tau(   7) = (   0.0000041   0.1443345   0.2424023  )
         8           Mo  tau(   8) = (   0.1250030   0.0721700   0.7272501  )
         9           S   tau(   9) = (   0.0000038   0.1443392   0.6028599  )
        10           S   tau(  10) = (   0.1250037   0.0721683   0.3667755  )
        11           S   tau(  11) = (   0.1250033   0.0721688   0.1180247  )
        12           S   tau(  12) = (   0.0000038   0.1443391   0.8517304  )
        13           Mo  tau(  13) = (  -0.1249989   0.3608437  -0.7272732  )
        14           Mo  tau(  14) = (   0.0000030   0.2886752  -0.2424042  )
        15           S   tau(  15) = (  -0.1249977   0.3608450  -0.3667802  )
        16           S   tau(  16) = (   0.0000012   0.2886747  -0.6030489  )
        17           S   tau(  17) = (   0.0000012   0.2886748  -0.8514963  )
        18           S   tau(  18) = (  -0.1249977   0.3608454  -0.1180274  )
        19           Mo  tau(  19) = (  -0.1249981   0.3608444   0.2424011  )
        20           Mo  tau(  20) = (   0.0000038   0.2886765   0.7272499  )
        21           S   tau(  21) = (  -0.1249961   0.3608457   0.6028596  )
        22           S   tau(  22) = (   0.0000037   0.2886752   0.3667739  )
        23           S   tau(  23) = (   0.0000035   0.2886747   0.1180263  )
        24           S   tau(  24) = (  -0.1249962   0.3608459   0.8517305  )
        25           Mo  tau(  25) = (  -0.2499987   0.5773502  -0.7272732  )
        26           Mo  tau(  26) = (  -0.1249977   0.5051839  -0.2424055  )
        27           S   tau(  27) = (  -0.2499981   0.5773518  -0.3667809  )
        28           S   tau(  28) = (  -0.1249986   0.5051812  -0.6030489  )
        29           S   tau(  29) = (  -0.1249986   0.5051813  -0.8514963  )
        30           S   tau(  30) = (  -0.2499979   0.5773512  -0.1180266  )
        31           Mo  tau(  31) = (  -0.2499983   0.5773503   0.2424020  )
        32           Mo  tau(  32) = (  -0.1249962   0.5051830   0.7272501  )
        33           S   tau(  33) = (  -0.2499958   0.5773522   0.6028593  )
        34           S   tau(  34) = (  -0.1249963   0.5051821   0.3667746  )
        35           S   tau(  35) = (  -0.1249968   0.5051820   0.1180254  )
        36           S   tau(  36) = (  -0.2499959   0.5773522   0.8517307  )
        37           Mo  tau(  37) = (  -0.3749985   0.7938567  -0.7272732  )
        38           Mo  tau(  38) = (  -0.2500001   0.7216874  -0.2424031  )
        39           S   tau(  39) = (  -0.3749980   0.7938584  -0.3667800  )
        40           S   tau(  40) = (  -0.2499984   0.7216877  -0.6030489  )
        41           S   tau(  41) = (  -0.2499984   0.7216878  -0.8514963  )
        42           S   tau(  42) = (  -0.3749982   0.7938585  -0.1180264  )
        43           Mo  tau(  43) = (  -0.3749976   0.7938584   0.2424002  )
        44           Mo  tau(  44) = (  -0.2499965   0.7216896   0.7272502  )
        45           S   tau(  45) = (  -0.3749954   0.7938586   0.6028596  )
        46           S   tau(  46) = (  -0.2499962   0.7216890   0.3667741  )
        47           S   tau(  47) = (  -0.2499961   0.7216884   0.1180258  )
        48           S   tau(  48) = (  -0.3749955   0.7938585   0.8517305  )
        49           Mo  tau(  49) = (   0.2500010   0.1443372  -0.7272732  )
        50           Mo  tau(  50) = (   0.3750034   0.0721723  -0.2424032  )
        51           S   tau(  51) = (   0.2500017   0.1443391  -0.3667788  )
        52           S   tau(  52) = (   0.3750010   0.0721682  -0.6030489  )
        53           S   tau(  53) = (   0.3750010   0.0721683  -0.8514963  )
        54           S   tau(  54) = (   0.2500016   0.1443391  -0.1180271  )
        55           Mo  tau(  55) = (   0.2500037   0.1443371   0.2424008  )
        56           Mo  tau(  56) = (   0.3750049   0.0721708   0.7272499  )
        57           S   tau(  57) = (   0.2500041   0.1443391   0.6028593  )
        58           S   tau(  58) = (   0.3750026   0.0721682   0.3667763  )
        59           S   tau(  59) = (   0.3750033   0.0721687   0.1180242  )
        60           S   tau(  60) = (   0.2500040   0.1443392   0.8517310  )
[...]
       179           S   tau( 179) = (   0.6250040   0.5051821   0.1180241  )
       180           S   tau( 180) = (   0.5000045   0.5773523   0.8517308  )
       181           Mo  tau( 181) = (   0.3750016   0.7938567  -0.7272732  )
       182           Mo  tau( 182) = (   0.5000025   0.7216901  -0.2424039  )
       183           S   tau( 183) = (   0.3750019   0.7938578  -0.3667793  )
       184           S   tau( 184) = (   0.5000016   0.7216877  -0.6030489  )
       185           S   tau( 185) = (   0.5000016   0.7216878  -0.8514963  )
       186           S   tau( 186) = (   0.3750020   0.7938579  -0.1180272  )
       187           Mo  tau( 187) = (   0.3750057   0.7938586   0.2424015  )
       188           Mo  tau( 188) = (   0.5000052   0.7216902   0.7272503  )
       189           S   tau( 189) = (   0.3750045   0.7938588   0.6028592  )
       190           S   tau( 190) = (   0.5000042   0.7216887   0.3667757  )
       191           S   tau( 191) = (   0.5000039   0.7216887   0.1180242  )
       192           S   tau( 192) = (   0.3750047   0.7938587   0.8517308  )
       193           Pd  tau( 193) = (   0.1250302   0.3608104   1.0262628  )

     DFT-D3 Dispersion Correction (3-body terms):
       Reference C6 values for interpolation:

         atom   Coordination number   C6
         S          0.000           268.01
         S          0.995           261.99
         S          1.990           251.62
         Mo         0.000          1691.79
         Mo         1.942          1004.01
         Mo        11.056           674.22
         Pd         0.000          1217.01
         Pd         1.863           573.90
         Pd         5.710           531.75

       Values used:

         atom   Coordination number  R0_AB[au]  C6      C8
         Mo        10.208            3.547    674.22  77634.20
         Mo        10.221            3.547    674.22  77634.20
         S          3.858            3.128    251.62  12327.25
         S          3.859            3.128    251.62  12327.25
[...]
     atom   15 type  2   force =     0.00000000    0.00000000    0.00000000
     atom   16 type  2   force =     0.00000000    0.00000000    0.00000000
     atom   17 type  2   force =     0.00000000    0.00000000    0.00000000
     atom   18 type  2   force =     0.00000000    0.00000000    0.00000000
     atom   19 type  1   force =    -0.00001426   -0.00000154    0.00000498
     atom   20 type  1   force =     0.00000035    0.00000086   -0.00007564
     atom   21 type  2   force =     0.00000106   -0.00000103   -0.00002635
     atom   22 type  2   force =    -0.00000529   -0.00000278    0.00001035
     atom   23 type  2   force =    -0.00000581   -0.00000377   -0.00000254
     atom   24 type  2   force =    -0.00000398    0.00001304   -0.00002924
     atom   25 type  1   force =     0.00000000    0.00000000    0.00000000
     atom   26 type  1   force =     0.00000000    0.00000000    0.00000000
     atom   27 type  2   force =     0.00000000    0.00000000    0.00000000
     atom   28 type  2   force =     0.00000000    0.00000000    0.00000000
     atom   29 type  2   force =     0.00000000    0.00000000    0.00000000
     atom   30 type  2   force =     0.00000000    0.00000000    0.00000000
     atom   31 type  1   force =    -0.00001192    0.00000694    0.00001146
     atom   32 type  1   force =     0.00000062   -0.00000223   -0.00010029
     atom   33 type  2   force =     0.00000150   -0.00000215   -0.00002138
     atom   34 type  2   force =    -0.00000601    0.00000278    0.00000544
     atom   35 type  2   force =    -0.00000677    0.00000338    0.00000021
     atom   36 type  2   force =     0.00000588   -0.00000439   -0.00002774
     atom   37 type  1   force =     0.00000000    0.00000000    0.00000000
     atom   38 type  1   force =     0.00000000    0.00000000    0.00000000
     atom   39 type  2   force =     0.00000000    0.00000000    0.00000000
     atom   40 type  2   force =     0.00000000    0.00000000    0.00000000
     atom   41 type  2   force =     0.00000000    0.00000000    0.00000000
     atom   42 type  2   force =     0.00000000    0.00000000    0.00000000
     atom   43 type  1   force =     0.00000074   -0.00001182    0.00001018
     atom   44 type  1   force =    -0.00001011   -0.00000695   -0.00018393
     atom   45 type  2   force =    -0.00000021    0.00000196   -0.00002146
     atom   46 type  2   force =    -0.00000248   -0.00000141   -0.00000646
     atom   47 type  2   force =    -0.00000275   -0.00000099    0.00000615
     atom   48 type  2   force =    -0.00000019    0.00000763   -0.00002735
     atom   49 type  1   force =     0.00000000    0.00000000    0.00000000
     atom   50 type  1   force =     0.00000000    0.00000000    0.00000000
     atom   51 type  2   force =     0.00000000    0.00000000    0.00000000
     atom   52 type  2   force =     0.00000000    0.00000000    0.00000000
     atom   53 type  2   force =     0.00000000    0.00000000    0.00000000
     atom   54 type  2   force =     0.00000000    0.00000000    0.00000000
     atom   55 type  1   force =     0.00000969   -0.00001086    0.00000198
     atom   56 type  1   force =    -0.00002478   -0.00000859   -0.00014132
     atom   57 type  2   force =     0.00000051    0.00000247   -0.00002636
     atom   58 type  2   force =    -0.00000109   -0.00000190   -0.00000128
     atom   59 type  2   force =     0.00000293   -0.00000275    0.00000224
     atom   60 type  2   force =    -0.00000927   -0.00000921   -0.00002883
[...]
     atom  179 type  2   force =     0.00000059    0.00000283    0.00000719
     atom  180 type  2   force =    -0.00000671   -0.00000460   -0.00002868
     atom  181 type  1   force =     0.00000000    0.00000000    0.00000000
     atom  182 type  1   force =     0.00000000    0.00000000    0.00000000
     atom  183 type  2   force =     0.00000000    0.00000000    0.00000000
     atom  184 type  2   force =     0.00000000    0.00000000    0.00000000
     atom  185 type  2   force =     0.00000000    0.00000000    0.00000000
     atom  186 type  2   force =     0.00000000    0.00000000    0.00000000
     atom  187 type  1   force =     0.00000139   -0.00000150    0.00000149
     atom  188 type  1   force =     0.00000974   -0.00000760   -0.00018440
     atom  189 type  2   force =    -0.00000270    0.00000108   -0.00001896
     atom  190 type  2   force =     0.00000273   -0.00000168   -0.00000616
     atom  191 type  2   force =     0.00000336   -0.00000060    0.00000654
     atom  192 type  2   force =    -0.00000108    0.00000078   -0.00003034
     atom  193 type  3   force =     0.00000024    0.00000005   -0.00019352

     DFT-D3 dispersion contribution to forces:
     atom    1 type  1   force =     0.00000002    0.00000004    0.00255971
     atom    2 type  1   force =     0.00000000    0.00000006    0.00001532
     atom    3 type  2   force =     0.00000001    0.00000001   -0.00003303
     atom    4 type  2   force =    -0.00000001    0.00000003    0.00017155
     atom    5 type  2   force =    -0.00000000    0.00000003    0.00441491
     atom    6 type  2   force =     0.00000003    0.00000002    0.00009775
     atom    7 type  1   force =     0.00000036    0.00000123   -0.00001153
     atom    8 type  1   force =     0.00000002    0.00028493   -0.00224381
     atom    9 type  2   force =     0.00001906    0.00003846   -0.00010105
     atom   10 type  2   force =     0.00000001    0.00000075    0.00003547
     atom   11 type  2   force =     0.00000001    0.00000013   -0.00009709
     atom   12 type  2   force =     0.00018252    0.00030094   -0.00416514
     atom   13 type  1   force =     0.00000005    0.00000000    0.00255971
     atom   14 type  1   force =     0.00000004    0.00000002    0.00001532
     atom   15 type  2   force =     0.00000003    0.00000001   -0.00003304
     atom   16 type  2   force =     0.00000000    0.00000000    0.00017157
     atom   17 type  2   force =     0.00000001    0.00000001    0.00441476
     atom   18 type  2   force =     0.00000006    0.00000001    0.00009773
     atom   19 type  1   force =     0.00000124   -0.00000032   -0.00001153
     atom   20 type  1   force =     0.00013018    0.00007511   -0.00221108
     atom   21 type  2   force =     0.00004282   -0.00000273   -0.00010107
     atom   22 type  2   force =    -0.00000055   -0.00000033    0.00003796
     atom   23 type  2   force =     0.00000045    0.00000023   -0.00009672
     atom   24 type  2   force =     0.00035219    0.00000749   -0.00416498
     atom   25 type  1   force =     0.00000003   -0.00000002    0.00255966
     atom   26 type  1   force =     0.00000009    0.00000001    0.00001529
     atom   27 type  2   force =     0.00000004   -0.00000001   -0.00003299
     atom   28 type  2   force =     0.00000002   -0.00000001    0.00017155
     atom   29 type  2   force =     0.00000003   -0.00000001    0.00441491
     atom   30 type  2   force =     0.00000006   -0.00000001    0.00009776
     atom   31 type  1   force =     0.00000220   -0.00000126   -0.00001282
     atom   32 type  1   force =     0.00024666   -0.00014244   -0.00224399
     atom   33 type  2   force =    -0.00000637    0.00000365   -0.00017227
     atom   34 type  2   force =     0.00000065   -0.00000038    0.00003545
     atom   35 type  2   force =     0.00000012   -0.00000003   -0.00009707
     atom   36 type  2   force =     0.00010514   -0.00006071   -0.00436961
     atom   37 type  1   force =    -0.00000000    0.00000003    0.00255966
     atom   38 type  1   force =     0.00000001    0.00000001    0.00001529
     atom   39 type  2   force =     0.00000001    0.00000003   -0.00003299
     atom   40 type  2   force =     0.00000000   -0.00000000    0.00017153
     atom   41 type  2   force =     0.00000003    0.00000002    0.00441503
     atom   42 type  2   force =     0.00000001    0.00000007    0.00009776
     atom   43 type  1   force =     0.00000001    0.00000254   -0.00001284
     atom   44 type  1   force =     0.00000559    0.00000326   -0.00252902
     atom   45 type  2   force =    -0.00000001   -0.00000734   -0.00017226
     atom   46 type  2   force =     0.00000159    0.00000094    0.00003677
     atom   47 type  2   force =     0.00000003    0.00000002   -0.00009725
     atom   48 type  2   force =     0.00000001    0.00012154   -0.00436956
     atom   49 type  1   force =    -0.00000002    0.00000004    0.00255970
     atom   50 type  1   force =    -0.00000002    0.00000002    0.00001536
     atom   51 type  2   force =    -0.00000002   -0.00000000   -0.00003303
     atom   52 type  2   force =     0.00000001    0.00000001    0.00017154
     atom   53 type  2   force =    -0.00000001    0.00000002    0.00441497
     atom   54 type  2   force =    -0.00000003    0.00000002    0.00009776
     atom   55 type  1   force =    -0.00000034    0.00000122   -0.00001156
     atom   56 type  1   force =    -0.00009177    0.00009993   -0.00243307
     atom   57 type  2   force =    -0.00001907    0.00003849   -0.00010104
     atom   58 type  2   force =    -0.00000194    0.00000081    0.00003505
     atom   59 type  2   force =    -0.00000038    0.00000007   -0.00009708
     atom   60 type  2   force =    -0.00018237    0.00030081   -0.00416523
[...]
     atom  179 type  2   force =    -0.00000000   -0.00000001   -0.00009727
     atom  180 type  2   force =    -0.00010521   -0.00006075   -0.00436958
     atom  181 type  1   force =    -0.00000001    0.00000000    0.00255967
     atom  182 type  1   force =    -0.00000007   -0.00000002    0.00001528
     atom  183 type  2   force =    -0.00000004   -0.00000003   -0.00003301
     atom  184 type  2   force =    -0.00000001    0.00000000    0.00017155
     atom  185 type  2   force =    -0.00000003    0.00000002    0.00441503
     atom  186 type  2   force =    -0.00000006   -0.00000002    0.00009770
     atom  187 type  1   force =    -0.00000057    0.00000032   -0.00001288
     atom  188 type  1   force =    -0.00000561    0.00000325   -0.00252903
     atom  189 type  2   force =    -0.00000187    0.00000108   -0.00017567
     atom  190 type  2   force =    -0.00000159    0.00000095    0.00003678
     atom  191 type  2   force =    -0.00000003    0.00000002   -0.00009728
     atom  192 type  2   force =    -0.00000286    0.00000168   -0.00439236
     atom  193 type  3   force =    -0.00000047    0.00000062   -0.00530112

     Total force =     0.002516     Total SCF correction =     0.000614
     SCF correction compared to forces is large: reduce conv_thr to get better values
     Energy error            =      1.2E-05 Ry
     Gradient error          =      6.8E-04 Ry/Bohr

     bfgs converged in  10 scf cycles and   9 bfgs steps
     (criteria: energy <  1.0E-04 Ry, force <  1.0E-03 Ry/Bohr)

     End of BFGS Geometry Optimization

     Final energy             =  -32305.6187931961 Ry

     File ./outdir/pwscf.bfgs deleted, as requested
Begin final coordinates

ATOMIC_POSITIONS (angstrom)
Mo            0.0000119917        1.8193638619       -9.1672481230    0   0   0
Mo            1.5756136568        0.9097075315       -3.0554901653    0   0   0
S             0.0000188998        1.8193822938       -4.6232556019    0   0   0
S             1.5756321638        0.9096773839       -7.6014065489    0   0   0
S             1.5756326175        0.9096785128      -10.7330757790    0   0   0
S             0.0000189190        1.8193860094       -1.4877129945    0   0   0
Mo            0.0000375594        1.8194176740        3.0555828755
Mo            1.5756699999        0.9116845948        9.1718639947
S             0.0001469046        1.8137453380        7.5979223187
S             1.5756520011        0.9097022729        4.6230866499
S             1.5756458873        0.9097591413        1.4878077830
S            -0.0005919752        1.8250432131       10.7384102201
Mo           -1.5756053507        4.5484193819       -9.1672481230    0   0   0
Mo            0.0000378379        3.6387394919       -3.0554952701    0   0   0
S            -1.5755913433        4.5484363582       -4.6232494962    0   0   0
S             0.0000148214        3.6387329039       -7.6014065489    0   0   0
S             0.0000152751        3.6387340328      -10.7330757790    0   0   0
S            -1.5755906502        4.5484413613       -1.4877305502    0   0   0
Mo           -1.5755547403        4.5483996399        3.0555788514
Mo           -0.0068318219        3.6347857304        9.1597297620
S            -1.5804068632        4.5513503787        7.5979219287
S             0.0002798463        3.6388903326        4.6234610177
S            -0.0000354528        3.6387114950        1.4876948886
S            -1.5709966343        4.5450619675       10.7384072517
Mo           -3.1512226931        7.2774749019       -9.1672481230    0   0   0
Mo           -1.5755910988        6.3678216792       -3.0555115988    0   0   0
S            -3.1512162438        7.2774954350       -4.6232578178    0   0   0
S            -1.5756025210        6.3677884239       -7.6014065489    0   0   0
S            -1.5756020673        6.3677895528      -10.7330757790    0   0   0
S            -3.1512127704        7.2774877076       -1.4877200710    0   0   0
Mo           -3.1512081352        7.2774976972        3.0554769003
Mo           -1.5738526362        6.3668264457        9.1718615078
S            -3.1502513947        7.2769635610        7.6027720062
S            -1.5755702316        6.3677916266        4.6231014330
S            -1.5755218962        6.3677486713        1.4877855909
S            -3.1502581645        7.2769656937       10.7392151757
Mo           -4.7268400355       10.0065304219       -9.1672481230    0   0   0
Mo           -3.1512405618        9.0968403586       -3.0554816746    0   0   0
S            -4.7268341792       10.0065523623       -4.6232463762    0   0   0
S            -3.1512198634        9.0968439439       -7.6014065489    0   0   0
S            -3.1512194097        9.0968450728      -10.7330757790    0   0   0
S            -4.7268370797       10.0065537885       -1.4877176751    0   0   0
Mo           -4.7268078371       10.0065359301        3.0554677751
Mo           -3.1513035039        9.0967991842        9.1698317809
S            -4.7268009555       10.0076343261        7.6027733865
S            -3.1512349410        9.0968223212        4.6233101427
S            -3.1511981352        9.0968505874        1.4877171730
S            -4.7267995775       10.0076277185       10.7392186017
Mo            3.1512517547        1.8193638619       -9.1672481230    0   0   0
Mo            4.7269020221        0.9097289540       -3.0554823951    0   0   0
S             3.1512612351        1.8193882564       -4.6232320683    0   0   0
S             4.7268719268        0.9096773839       -7.6014065489    0   0   0
S             4.7268723805        0.9096785128      -10.7330757790    0   0   0
S             3.1512592485        1.8193890201       -1.4877261251    0   0   0
Mo            3.1512815834        1.8194122538        3.0555623923
Mo            4.7252522078        0.9083075255        9.1696691403
S             3.1511940005        1.8137377503        7.5979152984
S             4.7269940065        0.9096861485        4.6232076745
S             4.7268555781        0.9097151486        1.4877578178
S             3.1519340198        1.8250479627       10.7384051930
[...]
S             7.8781323683        6.3677818570        1.4877428631
S             6.3016094647        7.2769642457       10.7392153088
Mo            4.7268792535       10.0065304219       -9.1672481230    0   0   0
Mo            6.3025111524        9.0968738021       -3.0554915260    0   0   0
S             4.7268840634       10.0065452125       -4.6232380477    0   0   0
S             6.3024994256        9.0968439439       -7.6014065489    0   0   0
S             6.3024998793        9.0968450728      -10.7330757790    0   0   0
S             4.7268847312       10.0065459141       -1.4877283294    0   0   0
Mo            4.7269366873       10.0065263005        3.0555065972
Mo            6.3026592459        9.0967980995        9.1698325096
S             4.7281738810       10.0058303256        7.6014468796
S             6.3025613447        9.0968166130        4.6233022334
S             6.3025182350        9.0968472380        1.4877326712
S             4.7281424212       10.0058507265       10.7387350610
Pd            1.5759839904        4.5480305552       12.8832069721
End final coordinates

     Writing all to output data dir ./outdir/pwscf.save/

     General routines

     Parallel routines

   This run was terminated on:  15:20:18  15Aug2023

   JOB DONE.
Application 11039925 resources: utime ~3126080s, stime ~33389s, Rss ~3489548, inblocks ~0, outblocks ~53264440