     Program PWSCF v.7.2 starts on 11Oct2023 at 15:18:20

     Waiting for input...
     Reading input from standard input
Warning: card &CELL ignored
Warning: card / ignored

     Current dimensions of program PWSCF are:
     Max number of different atomic species (ntypx) = 10
     Max number of k-points (npk) =  40000
     Max angular momentum in pseudopotentials (lmaxx) =  4
     file Mo.pbe-spn-kjpaw_psl.1.0.0.UPF: wavefunction(s)  4S 4D renormalized
     file S.pbe-n-kjpaw_psl.1.0.0.UPF: wavefunction(s)  3S 3P renormalized
     file Pd.pbe-spn-kjpaw_psl.1.0.0.UPF: wavefunction(s)  4S 5S 4D renormalized

     R & G space division:  proc/nbgrp/npool/nimage =      36
     Subspace diagonalization in iterative solution of the eigenvalue problem:
     one sub-group per band group will be used

     Using Slab Decomposition

     bravais-lattice index     =            0
     lattice parameter (alat)  =      23.8199  a.u.
     unit-cell volume          =   33861.0370 (a.u.)^3
     number of atoms/cell      =          194
     number of atomic types    =            3
     number of electrons       =      1700.00
     number of Kohn-Sham states=         1020
     kinetic-energy cutoff     =      77.0000  Ry
     charge density cutoff     =     539.0000  Ry
     scf convergence threshold =      1.0E-06
     mixing beta               =       0.2000
     number of iterations used =            8  plain     mixing
     energy convergence thresh.=      1.0E-04
     force convergence thresh. =      1.0E-03
     Exchange-correlation= SLA  PW   PBX  PBC
                           (   1   4   3   4   0   0   0)
     nstep                     =         1000

     Effective Screening Medium Method
     Boundary Conditions: Vacuum-Slab-Vacuum
     total charge in unit cell        =   0.0000
     grid points for fit at edges     =        4

     celldm(1)=  23.819920  celldm(2)=   0.000000  celldm(3)=   0.000000
     celldm(4)=   0.000000  celldm(5)=   0.000000  celldm(6)=   0.000000

     crystal axes: (cart. coord. in units of alat)
               a(1) = (   1.000000   0.000000   0.000000 )
               a(2) = (  -0.499999   0.866026   0.000000 )
               a(3) = (   0.000000   0.000000   2.893000 )

     reciprocal axes: (cart. coord. in units 2 pi/alat)
               b(1) = (  1.000000  0.577349  0.000000 )
               b(2) = (  0.000000  1.154700  0.000000 )
               b(3) = (  0.000000  0.000000  0.345662 )

     PseudoPot. # 1 for Mo read from file:
     ./pseudo/Mo.pbe-spn-kjpaw_psl.1.0.0.UPF
     MD5 check sum: 317bf72632116215fd98f72de1686f13
     Pseudo is Projector augmented-wave + core cor, Zval = 14.0
     Generated using 'atomic' code by A. Dal Corso  v.7.2
     Shape of augmentation charge: PSQ
     Using radial grid of 1229 points,  6 beta functions with:
                l(1) =   0
                l(2) =   0
                l(3) =   1
                l(4) =   1
                l(5) =   2
                l(6) =   2
     Q(r) pseudized with 0 coefficients

     PseudoPot. # 2 for S  read from file:
     ./pseudo/S.pbe-n-kjpaw_psl.1.0.0.UPF
     MD5 check sum: 8b7b5302570d38d5e87fed6a1065abda
     Pseudo is Projector augmented-wave + core cor, Zval =  6.0
     Generated using 'atomic' code by A. Dal Corso  v.7.2
     Shape of augmentation charge: PSQ
     Using radial grid of 1151 points,  6 beta functions with:
                l(1) =   0
                l(2) =   0
                l(3) =   1
                l(4) =   1
                l(5) =   2
                l(6) =   2
     Q(r) pseudized with 0 coefficients

     PseudoPot. # 3 for Pd read from file:
     ./pseudo/Pd.pbe-spn-kjpaw_psl.1.0.0.UPF
     MD5 check sum: a60571a671f2502b8a6a4569d20a6edb
     Pseudo is Projector augmented-wave + core cor, Zval = 18.0
     Generated using 'atomic' code by A. Dal Corso  v.7.2
     Shape of augmentation charge: PSQ
     Using radial grid of 1235 points,  6 beta functions with:
                l(1) =   0
                l(2) =   0
                l(3) =   1
                l(4) =   1
                l(5) =   2
                l(6) =   2
     Q(r) pseudized with 0 coefficients

     atomic species   valence    mass     pseudopotential
        Mo            14.00    95.95000     Mo( 1.00)
        S              6.00    32.06000     S ( 1.00)
        Pd            18.00   106.42000     Pd( 1.00)

     No symmetry found

   Cartesian axes

     site n.     atom                  positions (alat units)
         1           Mo  tau(   1) = (   0.0000010   0.1443372  -0.7272732  )
         2           Mo  tau(   2) = (   0.1249995   0.0721706  -0.2424038  )
         3           S   tau(   3) = (   0.0000015   0.1443386  -0.3667807  )
         4           S   tau(   4) = (   0.1250010   0.0721682  -0.6030489  )
         5           S   tau(   5) = (   0.1250010   0.0721683  -0.8514963  )
         6           S   tau(   6) = (   0.0000015   0.1443389  -0.1180260  )
         7           Mo  tau(   7) = (   0.0000007   0.1443589   0.2424205  )
         8           Mo  tau(   8) = (   0.1250041   0.0720322   0.7266168  )
         9           S   tau(   9) = (   0.0000742   0.1444871   0.6020949  )
        10           S   tau(  10) = (   0.1250024   0.0721701   0.3667478  )
        11           S   tau(  11) = (   0.1250035   0.0721876   0.1180348  )
        12           S   tau(  12) = (  -0.0004118   0.1430864   0.8514340  )
        13           Mo  tau(  13) = (  -0.1249989   0.3608437  -0.7272732  )
        14           Mo  tau(  14) = (   0.0000030   0.2886752  -0.2424042  )
        15           S   tau(  15) = (  -0.1249977   0.3608450  -0.3667802  )
        16           S   tau(  16) = (   0.0000012   0.2886747  -0.6030489  )
        17           S   tau(  17) = (   0.0000012   0.2886748  -0.8514963  )
        18           S   tau(  18) = (  -0.1249977   0.3608454  -0.1180274  )
        19           Mo  tau(  19) = (  -0.1249729   0.3608584   0.2424608  )
        20           Mo  tau(  20) = (  -0.0007193   0.2876626   0.7275440  )
        21           S   tau(  21) = (  -0.1251115   0.3607789   0.6027257  )
        22           S   tau(  22) = (   0.0000621   0.2887099   0.3668377  )
        23           S   tau(  23) = (  -0.0000096   0.2886902   0.1180527  )
        24           S   tau(  24) = (  -0.1254673   0.3605734   0.8517408  )
        25           Mo  tau(  25) = (  -0.2499987   0.5773502  -0.7272732  )
        26           Mo  tau(  26) = (  -0.1249977   0.5051839  -0.2424055  )
        27           S   tau(  27) = (  -0.2499981   0.5773518  -0.3667809  )
        28           S   tau(  28) = (  -0.1249986   0.5051812  -0.6030489  )
        29           S   tau(  29) = (  -0.1249986   0.5051813  -0.8514963  )
        30           S   tau(  30) = (  -0.2499979   0.5773512  -0.1180266  )
        31           Mo  tau(  31) = (  -0.2499795   0.5773389   0.2424205  )
        32           Mo  tau(  32) = (  -0.1262356   0.5050639   0.7275441  )
        33           S   tau(  33) = (  -0.2498323   0.5773390   0.6020948  )
        34           S   tau(  34) = (  -0.1249376   0.5052159   0.3668377  )
        35           S   tau(  35) = (  -0.1249905   0.5051638   0.1180531  )
        36           S   tau(  36) = (  -0.2512883   0.5776183   0.8514340  )
        37           Mo  tau(  37) = (  -0.3749985   0.7938567  -0.7272732  )
        38           Mo  tau(  38) = (  -0.2500001   0.7216874  -0.2424031  )
        39           S   tau(  39) = (  -0.3749980   0.7938584  -0.3667800  )
        40           S   tau(  40) = (  -0.2499984   0.7216877  -0.6030489  )
        41           S   tau(  41) = (  -0.2499984   0.7216878  -0.8514963  )
        42           S   tau(  42) = (  -0.3749982   0.7938585  -0.1180264  )
        43           Mo  tau(  43) = (  -0.3749962   0.7938568   0.2423838  )
        44           Mo  tau(  44) = (  -0.2501148   0.7217588   0.7266170  )
        45           S   tau(  45) = (  -0.3749945   0.7938590   0.6021274  )
        46           S   tau(  46) = (  -0.2499958   0.7216877   0.3667488  )
        47           S   tau(  47) = (  -0.2499810   0.7216794   0.1180323  )
        48           S   tau(  48) = (  -0.3749953   0.7938585   0.8511588  )
        49           Mo  tau(  49) = (   0.2500010   0.1443372  -0.7272732  )
        50           Mo  tau(  50) = (   0.3750034   0.0721723  -0.2424032  )
        51           S   tau(  51) = (   0.2500017   0.1443391  -0.3667788  )
        52           S   tau(  52) = (   0.3750010   0.0721682  -0.6030489  )
        53           S   tau(  53) = (   0.3750010   0.0721683  -0.8514963  )
        54           S   tau(  54) = (   0.2500016   0.1443391  -0.1180271  )
        55           Mo  tau(  55) = (   0.2500054   0.1443594   0.2424211  )
        56           Mo  tau(  56) = (   0.3749279   0.0721263   0.7263991  )
        57           S   tau(  57) = (   0.2499344   0.1444864   0.6020948  )
        58           S   tau(  58) = (   0.3750316   0.0721860   0.3667597  )
        59           S   tau(  59) = (   0.3749924   0.0721644   0.1180346  )
        60           S   tau(  60) = (   0.2504199   0.1430865   0.8514340  )
[...]
       180           S   tau( 180) = (   0.5012979   0.5776190   0.8514332  )
       181           Mo  tau( 181) = (   0.3750016   0.7938567  -0.7272732  )
       182           Mo  tau( 182) = (   0.5000025   0.7216901  -0.2424039  )
       183           S   tau( 183) = (   0.3750019   0.7938578  -0.3667793  )
       184           S   tau( 184) = (   0.5000016   0.7216877  -0.6030489  )
       185           S   tau( 185) = (   0.5000016   0.7216878  -0.8514963  )
       186           S   tau( 186) = (   0.3750020   0.7938579  -0.1180272  )
       187           Mo  tau( 187) = (   0.3749848   0.7938487   0.2424206  )
       188           Mo  tau( 188) = (   0.5001249   0.7217591   0.7266160  )
       189           S   tau( 189) = (   0.3749125   0.7937251   0.6020942  )
       190           S   tau( 190) = (   0.5000021   0.7216868   0.3667472  )
       191           S   tau( 191) = (   0.4999874   0.7216780   0.1180346  )
       192           S   tau( 192) = (   0.3758826   0.7948451   0.8514332  )
       193           Pd  tau( 193) = (   0.1250063   0.5051842   0.9601361  )
       194           Pd  tau( 194) = (   0.1250302   0.1936804   0.9797996  )

     DFT-D3 Dispersion Correction (3-body terms):
       Reference C6 values for interpolation:

         atom   Coordination number   C6
         S          0.000           268.01
         S          0.995           261.99
         S          1.990           251.62
         Mo         0.000          1691.79
         Mo         1.942          1004.01
         Mo        11.056           674.22
         Pd         0.000          1217.01
         Pd         1.863           573.90
         Pd         5.710           531.75

       Values used:

         atom   Coordination number  R0_AB[au]  C6      C8
         Mo        10.208            3.547    674.22  77634.20
         Mo        10.221            3.547    674.22  77634.20
         S          3.858            3.128    251.62  12327.25
         S          3.859            3.128    251.62  12327.25
[...]
     atom   14 type  1   force =     0.00000000    0.00000000    0.00000000
     atom   15 type  2   force =     0.00000000    0.00000000    0.00000000
     atom   16 type  2   force =     0.00000000    0.00000000    0.00000000
     atom   17 type  2   force =     0.00000000    0.00000000    0.00000000
     atom   18 type  2   force =     0.00000000    0.00000000    0.00000000
     atom   19 type  1   force =     0.00000243   -0.00001927   -0.00001159
     atom   20 type  1   force =    -0.00000247   -0.00001922   -0.00005413
     atom   21 type  2   force =     0.00000147   -0.00000322    0.00000396
     atom   22 type  2   force =     0.00000033   -0.00000779   -0.00000577
     atom   23 type  2   force =     0.00000265   -0.00000259    0.00000448
     atom   24 type  2   force =     0.00000713   -0.00000211   -0.00000588
     atom   25 type  1   force =     0.00000000    0.00000000    0.00000000
     atom   26 type  1   force =     0.00000000    0.00000000    0.00000000
     atom   27 type  2   force =     0.00000000    0.00000000    0.00000000
     atom   28 type  2   force =     0.00000000    0.00000000    0.00000000
     atom   29 type  2   force =     0.00000000    0.00000000    0.00000000
     atom   30 type  2   force =     0.00000000    0.00000000    0.00000000
     atom   31 type  1   force =    -0.00000011    0.00000865   -0.00000041
     atom   32 type  1   force =    -0.00002658   -0.00002044   -0.00000952
     atom   33 type  2   force =     0.00000466   -0.00000244   -0.00000176
     atom   34 type  2   force =     0.00000311    0.00000184    0.00000164
     atom   35 type  2   force =    -0.00000056   -0.00000290    0.00000037
     atom   36 type  2   force =     0.00000317   -0.00000494   -0.00000524
     atom   37 type  1   force =     0.00000000    0.00000000    0.00000000
     atom   38 type  1   force =     0.00000000    0.00000000    0.00000000
     atom   39 type  2   force =     0.00000000    0.00000000    0.00000000
     atom   40 type  2   force =     0.00000000    0.00000000    0.00000000
     atom   41 type  2   force =     0.00000000    0.00000000    0.00000000
     atom   42 type  2   force =     0.00000000    0.00000000    0.00000000
     atom   43 type  1   force =    -0.00000027    0.00001814    0.00000201
     atom   44 type  1   force =     0.00000466    0.00001300    0.00003053
     atom   45 type  2   force =    -0.00000019    0.00000874    0.00000179
     atom   46 type  2   force =     0.00000074    0.00001109   -0.00000202
     atom   47 type  2   force =    -0.00000065    0.00000734    0.00000107
     atom   48 type  2   force =    -0.00000020    0.00001209   -0.00001508
     atom   49 type  1   force =     0.00000000    0.00000000    0.00000000
     atom   50 type  1   force =     0.00000000    0.00000000    0.00000000
     atom   51 type  2   force =     0.00000000    0.00000000    0.00000000
     atom   52 type  2   force =     0.00000000    0.00000000    0.00000000
     atom   53 type  2   force =     0.00000000    0.00000000    0.00000000
     atom   54 type  2   force =     0.00000000    0.00000000    0.00000000
     atom   55 type  1   force =    -0.00000567   -0.00000669   -0.00000391
     atom   56 type  1   force =     0.00003115   -0.00000325    0.00000649
     atom   57 type  2   force =    -0.00000352   -0.00000352    0.00000218
     atom   58 type  2   force =     0.00000092    0.00000103   -0.00000385
     atom   59 type  2   force =    -0.00000968    0.00000578    0.00000499
     atom   60 type  2   force =    -0.00000564    0.00000608   -0.00001055
[...]
     atom  180 type  2   force =    -0.00000319   -0.00000471   -0.00000514
     atom  181 type  1   force =     0.00000000    0.00000000    0.00000000
     atom  182 type  1   force =     0.00000000    0.00000000    0.00000000
     atom  183 type  2   force =     0.00000000    0.00000000    0.00000000
     atom  184 type  2   force =     0.00000000    0.00000000    0.00000000
     atom  185 type  2   force =     0.00000000    0.00000000    0.00000000
     atom  186 type  2   force =     0.00000000    0.00000000    0.00000000
     atom  187 type  1   force =     0.00001587    0.00001219    0.00000853
     atom  188 type  1   force =    -0.00000598    0.00001427    0.00002944
     atom  189 type  2   force =    -0.00000367    0.00001108   -0.00000235
     atom  190 type  2   force =    -0.00000099    0.00001103   -0.00000216
     atom  191 type  2   force =     0.00000056    0.00000730    0.00000131
     atom  192 type  2   force =     0.00000087    0.00000906   -0.00001367
     atom  193 type  3   force =    -0.00000042   -0.00010441    0.00004475
     atom  194 type  3   force =    -0.00000093    0.00007030   -0.00001856

     DFT-D3 dispersion contribution to forces:
     atom    1 type  1   force =     0.00000001    0.00000004    0.00255971
     atom    2 type  1   force =    -0.00000000   -0.00000006    0.00001485
     atom    3 type  2   force =     0.00000000   -0.00000002   -0.00003325
     atom    4 type  2   force =    -0.00000001    0.00000001    0.00017169
     atom    5 type  2   force =    -0.00000000    0.00000001    0.00441435
     atom    6 type  2   force =    -0.00000020   -0.00000024    0.00009806
     atom    7 type  1   force =    -0.00000202   -0.00000425    0.00000302
     atom    8 type  1   force =    -0.00000029    0.00041806   -0.00197444
     atom    9 type  2   force =     0.00006583    0.00008073    0.00004285
     atom   10 type  2   force =     0.00000001   -0.00001249    0.00004230
     atom   11 type  2   force =     0.00000000   -0.00000079   -0.00009524
     atom   12 type  2   force =     0.00024541    0.00043017   -0.00409191
     atom   13 type  1   force =     0.00000008    0.00000000    0.00255970
     atom   14 type  1   force =    -0.00000000    0.00000002    0.00001467
     atom   15 type  2   force =     0.00000004    0.00000003   -0.00003326
     atom   16 type  2   force =     0.00000001   -0.00000001    0.00017174
     atom   17 type  2   force =     0.00000002   -0.00000002    0.00441425
     atom   18 type  2   force =     0.00000011   -0.00000008    0.00009807
     atom   19 type  1   force =    -0.00000736   -0.00000841   -0.00000773
     atom   20 type  1   force =     0.00033756    0.00025096   -0.00171446
     atom   21 type  2   force =     0.00009573   -0.00001457    0.00000263
     atom   22 type  2   force =    -0.00000363   -0.00002065    0.00004218
     atom   23 type  2   force =    -0.00000035   -0.00000048   -0.00009741
     atom   24 type  2   force =     0.00092366    0.00010076   -0.00387138
     atom   25 type  1   force =     0.00000005   -0.00000000    0.00255965
     atom   26 type  1   force =     0.00000004    0.00000017    0.00001486
     atom   27 type  2   force =     0.00000003    0.00000002   -0.00003320
     atom   28 type  2   force =     0.00000001    0.00000001    0.00017169
     atom   29 type  2   force =    -0.00000000   -0.00000004    0.00441441
     atom   30 type  2   force =     0.00000013    0.00000003    0.00009828
     atom   31 type  1   force =    -0.00000580   -0.00000161   -0.00000494
     atom   32 type  1   force =     0.00050570   -0.00017845   -0.00197646
     atom   33 type  2   force =    -0.00000383    0.00000876   -0.00013328
     atom   34 type  2   force =    -0.00001316    0.00000040    0.00004167
     atom   35 type  2   force =    -0.00000021    0.00000045   -0.00009861
     atom   36 type  2   force =     0.00031803   -0.00008268   -0.00431163
     atom   37 type  1   force =    -0.00000000    0.00000004    0.00255968
     atom   38 type  1   force =     0.00000008    0.00000010    0.00001504
     atom   39 type  2   force =     0.00000001    0.00000005   -0.00003316
     atom   40 type  2   force =    -0.00000001    0.00000000    0.00017167
     atom   41 type  2   force =    -0.00000000    0.00000006    0.00441453
     atom   42 type  2   force =     0.00000002   -0.00000005    0.00009826
     atom   43 type  1   force =     0.00000001    0.00000666    0.00000695
     atom   44 type  1   force =     0.00004806    0.00003129   -0.00240986
     atom   45 type  2   force =     0.00000002    0.00002391   -0.00013491
     atom   46 type  2   force =    -0.00001256    0.00001287    0.00004529
     atom   47 type  2   force =    -0.00000042    0.00000076   -0.00009651
     atom   48 type  2   force =    -0.00000021    0.00037602   -0.00424372
     atom   49 type  1   force =    -0.00000001    0.00000004    0.00255970
     atom   50 type  1   force =     0.00000017   -0.00000008    0.00001511
     atom   51 type  2   force =    -0.00000001   -0.00000003   -0.00003325
     atom   52 type  2   force =     0.00000001    0.00000001    0.00017169
     atom   53 type  2   force =     0.00000000    0.00000002    0.00441445
     atom   54 type  2   force =     0.00000020   -0.00000024    0.00009806
     atom   55 type  1   force =     0.00000203   -0.00000427    0.00000302
     atom   56 type  1   force =    -0.00022401    0.00016795   -0.00222884
     atom   57 type  2   force =    -0.00006583    0.00008058    0.00004253
     atom   58 type  2   force =    -0.00000380    0.00000275    0.00004577
     atom   59 type  2   force =    -0.00000049    0.00000025   -0.00009513
     atom   60 type  2   force =    -0.00024629    0.00043070   -0.00409131
[...]
     atom  180 type  2   force =    -0.00031785   -0.00008245   -0.00431174
     atom  181 type  1   force =    -0.00000002   -0.00000000    0.00255964
     atom  182 type  1   force =    -0.00000013    0.00000008    0.00001502
     atom  183 type  2   force =    -0.00000002   -0.00000000   -0.00003317
     atom  184 type  2   force =     0.00000000    0.00000001    0.00017169
     atom  185 type  2   force =     0.00000000    0.00000006    0.00441453
     atom  186 type  2   force =    -0.00000030   -0.00000008    0.00009822
     atom  187 type  1   force =     0.00000561    0.00000991   -0.00000631
     atom  188 type  1   force =    -0.00004807    0.00003142   -0.00240978
     atom  189 type  2   force =     0.00000789    0.00000246   -0.00013111
     atom  190 type  2   force =     0.00001258    0.00001288    0.00004529
     atom  191 type  2   force =     0.00000041    0.00000076   -0.00009654
     atom  192 type  2   force =    -0.00008243   -0.00008475   -0.00428349
     atom  193 type  3   force =    -0.00000012   -0.00015321   -0.00626988
     atom  194 type  3   force =     0.00000056    0.00037854   -0.00636457

     Total force =     0.003557     Total SCF correction =     0.000221
     Energy error            =      3.3E-05 Ry
     Gradient error          =      8.6E-04 Ry/Bohr

     bfgs converged in  43 scf cycles and  42 bfgs steps
     (criteria: energy <  1.0E-04 Ry, force <  1.0E-03 Ry/Bohr)

     End of BFGS Geometry Optimization

     Final energy             =  -32817.5972701410 Ry

     File ./outdir/pwscf.bfgs deleted, as requested
Begin final coordinates

ATOMIC_POSITIONS (angstrom)
Mo            0.0000119917        1.8193638619       -9.1672481230    0   0   0
Mo            1.5756136568        0.9097075315       -3.0554901653    0   0   0
S             0.0000188998        1.8193822938       -4.6232556019    0   0   0
S             1.5756321638        0.9096773839       -7.6014065489    0   0   0
S             1.5756326175        0.9096785128      -10.7330757790    0   0   0
S             0.0000189190        1.8193860094       -1.4877129945    0   0   0
Mo           -0.0001812862        1.8174321546        3.0558195617
Mo            1.5757090822        0.8913754633        9.1532972904
S            -0.0043856174        1.7875614421        7.5778974648
S             1.5756625816        0.9075586673        4.6228588640
S             1.5756578488        0.9082819298        1.4878407143
S             0.0040209316        1.8047051748       10.7274953062
Mo           -1.5756053507        4.5484193819       -9.1672481230    0   0   0
Mo            0.0000378379        3.6387394919       -3.0554952701    0   0   0
S            -1.5755913433        4.5484363582       -4.6232494962    0   0   0
S             0.0000148214        3.6387329039       -7.6014065489    0   0   0
S             0.0000152751        3.6387340328      -10.7330757790    0   0   0
S            -1.5755906502        4.5484413613       -1.4877305502    0   0   0
Mo           -1.5754960679        4.5466795901        3.0562535354
Mo           -0.0174795717        3.6026465206        9.1378658912
S            -1.5879473769        4.5437247668        7.5845525945
S             0.0001149777        3.6367527089        4.6240690464
S             0.0001945347        3.6370895902        1.4884227857
S            -1.5676297228        4.5203652861       10.7242414167
Mo           -3.1512226931        7.2774749019       -9.1672481230    0   0   0
Mo           -1.5755910988        6.3678216792       -3.0555115988    0   0   0
S            -3.1512162438        7.2774954350       -4.6232578178    0   0   0
S            -1.5756025210        6.3677884239       -7.6014065489    0   0   0
S            -1.5756020673        6.3677895528      -10.7330757790    0   0   0
S            -3.1512127704        7.2774877076       -1.4877200710    0   0   0
Mo           -3.1510305412        7.2756589656        3.0558764503
Mo           -1.5846084924        6.3522409231        9.1754412684
S            -3.1484945708        7.2646010365        7.5982449430
S            -1.5749754881        6.3664042553        4.6237750046
S            -1.5755549145        6.3658633361        1.4881717832
S            -3.1612213773        7.2641354849       10.7395356550
Mo           -4.7268400355       10.0065304219       -9.1672481230    0   0   0
Mo           -3.1512405618        9.0968403586       -3.0554816746    0   0   0
S            -4.7268341792       10.0065523623       -4.6232463762    0   0   0
S            -3.1512198634        9.0968439439       -7.6014065489    0   0   0
S            -3.1512194097        9.0968450728      -10.7330757790    0   0   0
S            -4.7268370797       10.0065537885       -1.4877176751    0   0   0
Mo           -4.7268059798       10.0046953071        3.0553504974
Mo           -3.1509294264        9.0827529042        9.1665027205
S            -4.7267706730        9.9812286670        7.5922546067
S            -3.1509986271        9.0950297952        4.6230867089
S            -3.1511065616        9.0949389155        1.4878450461
S            -4.7267550842        9.9976051222       10.7303165392
Mo            3.1512517547        1.8193638619       -9.1672481230    0   0   0
Mo            4.7269020221        0.9097289540       -3.0554823951    0   0   0
S             3.1512612351        1.8193882564       -4.6232320683    0   0   0
S             4.7268719268        0.9096773839       -7.6014065489    0   0   0
S             4.7268723805        0.9096785128      -10.7330757790    0   0   0
S             3.1512592485        1.8193890201       -1.4877261251    0   0   0
Mo            3.1515052422        1.8174272107        3.0558151464
Mo            4.7277909982        0.8911647949        9.1575516560
S             3.1557903892        1.7875839950        7.5778703494
S             4.7278446063        0.9073283894        4.6229233975
S             4.7269007525        0.9077044957        1.4878129291
S             3.1474690773        1.8046300762       10.7274058285
[...]
S             6.3126569904        7.2641306333       10.7395447405
Mo            4.7268792535       10.0065304219       -9.1672481230    0   0   0
Mo            6.3025111524        9.0968738021       -3.0554915260    0   0   0
S             4.7268840634       10.0065452125       -4.6232380477    0   0   0
S             6.3024994256        9.0968439439       -7.6014065489    0   0   0
S             6.3024998793        9.0968450728      -10.7330757790    0   0   0
S             4.7268847312       10.0065459141       -1.4877283294    0   0   0
Mo            4.7265949150       10.0043747926        3.0555040592
Mo            6.3023578003        9.0827579643        9.1665228686
S             4.7227377304        9.9853876949        7.5969279631
S             6.3023463030        9.0950327950        4.6230875438
S             6.3024518302        9.0949433625        1.4878431012
S             4.7370396967       10.0041369725       10.7395736987
Pd            1.5757654377        6.2110110712       12.0901853007
Pd            1.5734755092        3.4848548317       12.7303090859
End final coordinates

     Writing all to output data dir ./outdir/pwscf.save/

     General routines

     Parallel routines

   This run was terminated on:   4:18:31  13Oct2023

   JOB DONE.
Application 11286127 resources: utime ~4743399s, stime ~51560s, Rss ~3566464, inblocks ~0, outblocks ~56266176