     Program PWSCF v.7.2 starts on 19Jul2023 at  6:28:11

     Waiting for input...
     Reading input from standard input

     Current dimensions of program PWSCF are:
     Max number of different atomic species (ntypx) = 10
     Max number of k-points (npk) =  40000
     Max angular momentum in pseudopotentials (lmaxx) =  4
     file Mo.pbe-spn-kjpaw_psl.1.0.0.UPF: wavefunction(s)  4S 4D renormalized
     file S.pbe-n-kjpaw_psl.1.0.0.UPF: wavefunction(s)  3S 3P renormalized

     R & G space division:  proc/nbgrp/npool/nimage =      48
     Subspace diagonalization in iterative solution of the eigenvalue problem:
     a serial algorithm will be used

     Using Slab Decomposition

     bravais-lattice index     =            0
     lattice parameter (alat)  =       6.0325  a.u.
     unit-cell volume          =     796.7434 (a.u.)^3
     number of atoms/cell      =            6
     number of atomic types    =            2
     number of electrons       =        52.00
     number of Kohn-Sham states=           31
     kinetic-energy cutoff     =      77.0000  Ry
     charge density cutoff     =     539.0000  Ry
     scf convergence threshold =      1.0E-06
     mixing beta               =       0.2000
     number of iterations used =            8  plain     mixing
     energy convergence thresh.=      1.0E-04
     force convergence thresh. =      1.0E-03
     press convergence thresh. =      5.0E-01
     Exchange-correlation= SLA  PW   PBX  PBC
                           (   1   4   3   4   0   0   0)
     nstep                     =         1000

     celldm(1)=   6.032455  celldm(2)=   0.000000  celldm(3)=   0.000000
     celldm(4)=   0.000000  celldm(5)=   0.000000  celldm(6)=   0.000000

     crystal axes: (cart. coord. in units of alat)
               a(1) = (   1.000000   0.000000   0.000000 )
               a(2) = (  -0.500000   0.866025   0.000000 )
               a(3) = (   0.000000   0.000000   4.190883 )

     reciprocal axes: (cart. coord. in units 2 pi/alat)
               b(1) = (  1.000000  0.577350  0.000000 )
               b(2) = (  0.000000  1.154701  0.000000 )
               b(3) = (  0.000000  0.000000  0.238613 )

     PseudoPot. # 1 for Mo read from file:
     ./pseudo/Mo.pbe-spn-kjpaw_psl.1.0.0.UPF
     MD5 check sum: 317bf72632116215fd98f72de1686f13
     Pseudo is Projector augmented-wave + core cor, Zval = 14.0
     Generated using 'atomic' code by A. Dal Corso  v.7.2
     Shape of augmentation charge: PSQ
     Using radial grid of 1229 points,  6 beta functions with:
                l(1) =   0
                l(2) =   0
                l(3) =   1
                l(4) =   1
                l(5) =   2
                l(6) =   2
     Q(r) pseudized with 0 coefficients

     PseudoPot. # 2 for S  read from file:
     ./pseudo/S.pbe-n-kjpaw_psl.1.0.0.UPF
     MD5 check sum: 8b7b5302570d38d5e87fed6a1065abda
     Pseudo is Projector augmented-wave + core cor, Zval =  6.0
     Generated using 'atomic' code by A. Dal Corso  v.7.2
     Shape of augmentation charge: PSQ
     Using radial grid of 1151 points,  6 beta functions with:
                l(1) =   0
                l(2) =   0
                l(3) =   1
                l(4) =   1
                l(5) =   2
                l(6) =   2
     Q(r) pseudized with 0 coefficients

     atomic species   valence    mass     pseudopotential
        Mo            14.00    95.95000     Mo( 1.00)
        S              6.00    32.06000     S ( 1.00)

     No symmetry found

   Cartesian axes

     site n.     atom                  positions (alat units)
         1           Mo  tau(   1) = (  -0.0000000   0.5773503   3.1431619  )
         2           Mo  tau(   2) = (   0.5000000   0.2886751   1.0477206  )
         3           S   tau(   3) = (  -0.0000000   0.5773503   0.5577310  )
         4           S   tau(   4) = (   0.5000000   0.2886751   3.6331515  )
         5           S   tau(   5) = (   0.5000000   0.2886751   2.6531723  )
         6           S   tau(   6) = (   0.0000000   0.5773503   1.5377102  )

     DFT-D3 Dispersion Correction (3-body terms):
       Reference C6 values for interpolation:

         atom   Coordination number   C6
         S          0.000           268.01
         S          0.995           261.99
         S          1.990           251.62
         Mo         0.000          1691.79
         Mo         1.942          1004.01
         Mo        11.056           674.22

       Values used:

         atom   Coordination number  R0_AB[au]  C6      C8
         Mo         9.886            3.547    674.22  77634.20
         Mo         9.886            3.547    674.22  77634.20
         S          3.678            3.128    251.62  12327.25
         S          3.678            3.128    251.62  12327.25
         S          3.678            3.128    251.62  12327.25
         S          3.678            3.128    251.62  12327.25

         Molecular C6 ( Ry / a.u.^6 ) =     13294.63

     number of k points=    36  Gaussian smearing, width (Ry)=  0.0100
                       cart. coord. in units 2pi/alat
        k(    1) = (   0.0000000   0.0000000   0.0000000), wk =   0.0312500
        k(    2) = (   0.0000000   0.0000000   0.0596533), wk =   0.0625000
        k(    3) = (   0.0000000   0.0000000  -0.1193066), wk =   0.0312500
        k(    4) = (   0.0000000   0.2886751   0.0000000), wk =   0.0625000
        k(    5) = (   0.0000000   0.2886751   0.0596533), wk =   0.0625000
        k(    6) = (   0.0000000   0.2886751  -0.1193066), wk =   0.0625000
        k(    7) = (   0.0000000   0.2886751  -0.0596533), wk =   0.0625000
        k(    8) = (   0.0000000  -0.5773503   0.0000000), wk =   0.0312500
        k(    9) = (   0.0000000  -0.5773503   0.0596533), wk =   0.0625000
        k(   10) = (   0.0000000  -0.5773503  -0.1193066), wk =   0.0312500
        k(   11) = (   0.2500000   0.1443376   0.0000000), wk =   0.0625000
        k(   12) = (   0.2500000   0.1443376   0.0596533), wk =   0.0625000
        k(   13) = (   0.2500000   0.1443376  -0.1193066), wk =   0.0625000
        k(   14) = (   0.2500000   0.1443376  -0.0596533), wk =   0.0625000
        k(   15) = (   0.2500000   0.4330127   0.0000000), wk =   0.0625000
        k(   16) = (   0.2500000   0.4330127   0.0596533), wk =   0.0625000
        k(   17) = (   0.2500000   0.4330127  -0.1193066), wk =   0.0625000
        k(   18) = (   0.2500000   0.4330127  -0.0596533), wk =   0.0625000
        k(   19) = (   0.2500000  -0.4330127   0.0000000), wk =   0.0625000
        k(   20) = (   0.2500000  -0.4330127   0.0596533), wk =   0.0625000
        k(   21) = (   0.2500000  -0.4330127  -0.1193066), wk =   0.0625000
        k(   22) = (   0.2500000  -0.4330127  -0.0596533), wk =   0.0625000
        k(   23) = (   0.2500000  -0.1443376   0.0000000), wk =   0.0625000
        k(   24) = (   0.2500000  -0.1443376   0.0596533), wk =   0.0625000
        k(   25) = (   0.2500000  -0.1443376  -0.1193066), wk =   0.0625000
        k(   26) = (   0.2500000  -0.1443376  -0.0596533), wk =   0.0625000
        k(   27) = (  -0.5000000  -0.2886751   0.0000000), wk =   0.0312500
        k(   28) = (  -0.5000000  -0.2886751   0.0596533), wk =   0.0625000
        k(   29) = (  -0.5000000  -0.2886751  -0.1193066), wk =   0.0312500
        k(   30) = (  -0.5000000   0.0000000   0.0000000), wk =   0.0625000
        k(   31) = (  -0.5000000   0.0000000   0.0596533), wk =   0.0625000
        k(   32) = (  -0.5000000   0.0000000  -0.1193066), wk =   0.0625000
        k(   33) = (  -0.5000000   0.0000000  -0.0596533), wk =   0.0625000
        k(   34) = (  -0.5000000  -0.8660254   0.0000000), wk =   0.0312500
        k(   35) = (  -0.5000000  -0.8660254   0.0596533), wk =   0.0625000
        k(   36) = (  -0.5000000  -0.8660254  -0.1193066), wk =   0.0312500

     Initial potential from superposition of free atoms

     starting charge      51.9981, renormalised to      52.0000
     Starting wfcs are   36 randomized atomic wfcs
     Checking if some PAW data can be deallocated...

     Self-consistent Calculation

     iteration #  1     ecut=    77.00 Ry     beta= 0.20
     Davidson diagonalization with overlap
     ethr =  1.00E-02,  avg # of iterations =  2.3

     Threshold (ethr) on eigenvalues was too large:
     Diagonalizing with lowered threshold

     Davidson diagonalization with overlap
     ethr =  2.84E-04,  avg # of iterations =  3.6

     total energy              =    -993.56940392 Ry
     estimated scf accuracy    <       0.20678513 Ry

[...]

     End of self-consistent calculation

          k = 0.0000 0.0000 0.0000 (  9149 PWs)   bands (ev):

   -52.0734 -52.0731 -26.1983 -26.1980 -26.0096 -26.0096 -26.0093 -26.0093
    -5.2848  -5.1940  -4.0276  -3.8717   2.9907   3.4868   6.2159   6.2159
     6.2196   6.2196   6.4479   7.3086   7.3086   7.3216   7.3216   7.7653
     8.5091   9.2479  11.5479  11.5479  11.5571  11.5571  11.7630

[...]

          k =-0.5000-0.2887 0.0000 (  9070 PWs)   bands (ev):

[...]

     the Fermi energy is    10.0523 ev

!    total energy              =    -993.56111058 Ry
     total all-electron energy =    -19390.221533 Ry
     estimated scf accuracy    <       0.00000012 Ry
     smearing contrib. (-TS)   =      -0.00000000 Ry
     internal energy E=F+TS    =    -993.56111058 Ry

     The total energy is F=E-TS. E is the sum of the following terms:
     one-electron contribution =    -218.79906230 Ry
     hartree contribution      =     133.06320722 Ry
     xc contribution           =     -59.36331658 Ry
     ewald contribution        =    -209.03907185 Ry
     DFT-D3 Dispersion         =      -0.15951006 Ry
     one-center paw contrib.   =    -639.26335702 Ry

     convergence has been achieved in  12 iterations

     Forces acting on atoms (cartesian axes, Ry/au):

     atom    1 type  1   force =    -0.00000049   -0.00000075   -0.00014009
     atom    2 type  1   force =    -0.00000197    0.00000044    0.00014213
     atom    3 type  2   force =     0.00000001    0.00000035    0.00461999
     atom    4 type  2   force =     0.00000006    0.00000029   -0.00460458
     atom    5 type  2   force =     0.00000223    0.00000020    0.00454837
     atom    6 type  2   force =     0.00000016   -0.00000053   -0.00456583
     The non-local contrib.  to forces
     atom    1 type  1   force =    -0.00000037    0.00000057   -0.00008988
     atom    2 type  1   force =     0.00000067   -0.00000040    0.00010161
     atom    3 type  2   force =     0.00000009    0.00000180    0.27006982
     atom    4 type  2   force =    -0.00000057   -0.00000097   -0.27005324
     atom    5 type  2   force =     0.00000204    0.00000101    0.26999052
     atom    6 type  2   force =     0.00000021   -0.00000086   -0.27000135
     The ionic contribution  to forces
     atom    1 type  1   force =     0.00000008   -0.00000010    0.00000000
     atom    2 type  1   force =    -0.00000008    0.00000010   -0.00000000
     atom    3 type  2   force =     0.00000008   -0.00000005  -16.30013113
     atom    4 type  2   force =    -0.00000008    0.00000005   16.30013113
     atom    5 type  2   force =    -0.00000000    0.00000005  -16.30013113
[...]

[...]

     Total force =     0.008747     Total SCF correction =     0.000264

[...]

     number of scf cycles    =  13
     number of bfgs steps    =  12

     enthalpy           old  =    -993.5701299038 Ry
     enthalpy           new  =    -993.5702377379 Ry

     CASE: enthalpy          _new < enthalpy          _old

     new trust radius        =       0.0044444073 bohr
     new conv_thr            =       0.0000000103 Ry

     new unit-cell volume =    709.34648 a.u.^3 (   105.11430 Ang^3 )
     density =      5.05740 g/cm^3

[...]

ATOMIC_POSITIONS (angstrom)
Mo            0.0000151677        1.8193660475        9.1668382724
Mo            1.5756206931        0.9096950391        3.0558883853
S             0.0000022721        1.8193797044        1.4900429684
S             1.5756339334        0.9096801447       10.7326815958
S             1.5756380463        0.9096815892        7.6010123658
S            -0.0000011065        1.8193811957        4.6217144084

     Writing config-only to output data dir ./outdir/pwscf.save/
     NEW-OLD atomic charge density approx. for the potential
     extrapolated charge   52.02866, renormalised to   52.00000

[...]

     Energy error            =      4.8E-06 Ry
     Gradient error          =      1.9E-05 Ry/Bohr
     Cell gradient error     =      3.7E-01 kbar

     bfgs converged in  14 scf cycles and  13 bfgs steps
     (criteria: energy <  1.0E-04 Ry, force <  1.0E-03 Ry/Bohr, cell <  5.0E-01 kbar)

     End of BFGS Geometry Optimization

     Final enthalpy           =    -993.5702424939 Ry

     File ./outdir/pwscf.bfgs deleted, as requested
Begin final coordinates
     new unit-cell volume =    709.34648 a.u.^3 (   105.11430 Ang^3 )
     density =      5.05740 g/cm^3

CELL_PARAMETERS (angstrom)
   3.151239763   0.000001466   0.000003682
  -1.575618612   2.729054787  -0.000001566
   0.000015185   0.000004987  12.222723883

ATOMIC_POSITIONS (angstrom)
Mo            0.0000151677        1.8193660475        9.1668382724
Mo            1.5756206931        0.9096950391        3.0558883853
S             0.0000022721        1.8193797044        1.4900429684
S             1.5756339334        0.9096801447       10.7326815958
S             1.5756380463        0.9096815892        7.6010123658
S            -0.0000011065        1.8193811957        4.6217144084
End final coordinates

     Writing config-only to output data dir ./outdir/pwscf.save/

     Final scf calculation at the relaxed structure.
     The G-vectors are recalculated for the final unit cell
     Results may differ from those at the preceding step.

     Using Slab Decomposition

     bravais-lattice index     =            0
     lattice parameter (alat)  =       6.0325  a.u.
     unit-cell volume          =     709.3465 (a.u.)^3
     number of atoms/cell      =            6
     number of atomic types    =            2
     number of electrons       =        52.00
     number of Kohn-Sham states=           31
     kinetic-energy cutoff     =      77.0000  Ry
     charge density cutoff     =     539.0000  Ry
     scf convergence threshold =      1.0E-08
     mixing beta               =       0.2000
     number of iterations used =            8  plain     mixing
     press convergence thresh. =      5.0E-01
     Exchange-correlation= SLA  PW   PBX  PBC
                           (   1   4   3   4   0   0   0)

     celldm(1)=   6.032455  celldm(2)=   0.000000  celldm(3)=   0.000000
     celldm(4)=   0.000000  celldm(5)=   0.000000  celldm(6)=   0.000000

     crystal axes: (cart. coord. in units of alat)
               a(1) = (   0.987157   0.000000   0.000001 )
               a(2) = (  -0.493578   0.854903  -0.000000 )
               a(3) = (   0.000005   0.000002   3.828889 )

     reciprocal axes: (cart. coord. in units 2 pi/alat)
               b(1) = (  1.013010  0.584861 -0.000001 )
               b(2) = ( -0.000001  1.169723 -0.000000 )
               b(3) = ( -0.000000 -0.000000  0.261172 )

     PseudoPot. # 1 for Mo read from file:
     ./pseudo/Mo.pbe-spn-kjpaw_psl.1.0.0.UPF
     MD5 check sum: 317bf72632116215fd98f72de1686f13
     Pseudo is Projector augmented-wave + core cor, Zval = 14.0
     Generated using 'atomic' code by A. Dal Corso  v.7.2
     Shape of augmentation charge: PSQ
     Using radial grid of 1229 points,  6 beta functions with:
                l(1) =   0
                l(2) =   0
                l(3) =   1
                l(4) =   1
                l(5) =   2
                l(6) =   2
     Q(r) pseudized with 0 coefficients

     PseudoPot. # 2 for S  read from file:
     ./pseudo/S.pbe-n-kjpaw_psl.1.0.0.UPF
     MD5 check sum: 8b7b5302570d38d5e87fed6a1065abda
     Pseudo is Projector augmented-wave + core cor, Zval =  6.0
     Generated using 'atomic' code by A. Dal Corso  v.7.2
     Shape of augmentation charge: PSQ
     Using radial grid of 1151 points,  6 beta functions with:
                l(1) =   0
                l(2) =   0
                l(3) =   1
                l(4) =   1
                l(5) =   2
                l(6) =   2
     Q(r) pseudized with 0 coefficients

     atomic species   valence    mass     pseudopotential
        Mo            14.00    95.95000     Mo( 1.00)
        S              6.00    32.06000     S ( 1.00)

     No symmetry found

   Cartesian axes

     site n.     atom                  positions (alat units)
         1           Mo  tau(   1) = (   0.0000048   0.5699344   2.8716025  )
         2           Mo  tau(   2) = (   0.4935787   0.2849709   0.9572872  )
         3           S   tau(   3) = (   0.0000007   0.5699386   0.4667707  )
         4           S   tau(   4) = (   0.4935829   0.2849663   3.3621183  )
         5           S   tau(   5) = (   0.4935842   0.2849667   2.3810921  )
         6           S   tau(   6) = (  -0.0000003   0.5699391   1.4477976  )

     DFT-D3 Dispersion Correction (3-body terms):
       Reference C6 values for interpolation:

         atom   Coordination number   C6
         S          0.000           268.01
         S          0.995           261.99
         S          1.990           251.62
         Mo         0.000          1691.79
         Mo         1.942          1004.01
         Mo        11.056           674.22

       Values used:

         atom   Coordination number  R0_AB[au]  C6      C8
         Mo        10.223            3.547    674.22  77634.20
         Mo        10.223            3.547    674.22  77634.20
         S          3.861            3.128    251.62  12327.25
         S          3.861            3.128    251.62  12327.25
         S          3.861            3.128    251.62  12327.25
         S          3.861            3.128    251.62  12327.25

         Molecular C6 ( Ry / a.u.^6 ) =     13294.63

     number of k points=    36  Gaussian smearing, width (Ry)=  0.0100
                       cart. coord. in units 2pi/alat
        k(    1) = (   0.0000000   0.0000000   0.0000000), wk =   0.0312500
        k(    2) = (  -0.0000001  -0.0000000   0.0652931), wk =   0.0625000
        k(    3) = (   0.0000002   0.0000000  -0.1305862), wk =   0.0312500
        k(    4) = (  -0.0000001   0.2924306  -0.0000001), wk =   0.0625000
        k(    5) = (  -0.0000002   0.2924306   0.0652930), wk =   0.0625000
        k(    6) = (   0.0000000   0.2924307  -0.1305863), wk =   0.0625000
        k(    7) = (  -0.0000001   0.2924307  -0.0652932), wk =   0.0625000
        k(    8) = (   0.0000003  -0.5848613   0.0000002), wk =   0.0312500
        k(    9) = (   0.0000002  -0.5848613   0.0652933), wk =   0.0625000
        k(   10) = (   0.0000004  -0.5848613  -0.1305860), wk =   0.0312500
        k(   11) = (   0.2532525   0.1462152  -0.0000004), wk =   0.0625000
        k(   12) = (   0.2532524   0.1462152   0.0652927), wk =   0.0625000
        k(   13) = (   0.2532526   0.1462152  -0.1305866), wk =   0.0625000
        k(   14) = (   0.2532525   0.1462152  -0.0652935), wk =   0.0625000
        k(   15) = (   0.2532523   0.4386459  -0.0000005), wk =   0.0625000
        k(   16) = (   0.2532523   0.4386458   0.0652926), wk =   0.0625000
        k(   17) = (   0.2532525   0.4386459  -0.1305867), wk =   0.0625000
        k(   18) = (   0.2532524   0.4386459  -0.0652936), wk =   0.0625000
        k(   19) = (   0.2532527  -0.4386461  -0.0000001), wk =   0.0625000
        k(   20) = (   0.2532527  -0.4386461   0.0652930), wk =   0.0625000
        k(   21) = (   0.2532529  -0.4386461  -0.1305863), wk =   0.0625000
        k(   22) = (   0.2532528  -0.4386461  -0.0652932), wk =   0.0625000
        k(   23) = (   0.2532526  -0.1462154  -0.0000003), wk =   0.0625000
        k(   24) = (   0.2532525  -0.1462154   0.0652928), wk =   0.0625000
        k(   25) = (   0.2532528  -0.1462154  -0.1305864), wk =   0.0625000
        k(   26) = (   0.2532527  -0.1462154  -0.0652934), wk =   0.0625000
        k(   27) = (  -0.5065049  -0.2924304   0.0000007), wk =   0.0312500
        k(   28) = (  -0.5065050  -0.2924304   0.0652938), wk =   0.0625000
        k(   29) = (  -0.5065048  -0.2924304  -0.1305854), wk =   0.0312500
        k(   30) = (  -0.5065051   0.0000002   0.0000006), wk =   0.0625000
        k(   31) = (  -0.5065052   0.0000002   0.0652937), wk =   0.0625000
        k(   32) = (  -0.5065049   0.0000002  -0.1305856), wk =   0.0625000
        k(   33) = (  -0.5065050   0.0000002  -0.0652925), wk =   0.0625000
        k(   34) = (  -0.5065047  -0.8772917   0.0000010), wk =   0.0312500
        k(   35) = (  -0.5065048  -0.8772917   0.0652941), wk =   0.0625000
        k(   36) = (  -0.5065045  -0.8772917  -0.1305852), wk =   0.0312500

     Initial potential from superposition of free atoms

     starting charge      51.9981, renormalised to      52.0000
     Starting wfcs are   36 randomized atomic wfcs
     Checking if some PAW data can be deallocated...

     Self-consistent Calculation

     iteration #  1     ecut=    77.00 Ry     beta= 0.20
     Davidson diagonalization with overlap
     c_bands:  5 eigenvalues not converged
     c_bands:  5 eigenvalues not converged
     c_bands:  3 eigenvalues not converged
     c_bands:  1 eigenvalues not converged
     c_bands:  1 eigenvalues not converged
     c_bands:  2 eigenvalues not converged
     c_bands:  1 eigenvalues not converged
     c_bands:  1 eigenvalues not converged
     c_bands:  1 eigenvalues not converged
     c_bands:  1 eigenvalues not converged
     c_bands:  1 eigenvalues not converged
     c_bands:  1 eigenvalues not converged
     c_bands:  1 eigenvalues not converged
     ethr =  1.00E-06,  avg # of iterations = 19.0

[...]

     total energy              =    -993.56997973 Ry
     estimated scf accuracy    <       0.00000001 Ry

     iteration # 15     ecut=    77.00 Ry     beta= 0.20
     Davidson diagonalization with overlap
     ethr =  2.24E-11,  avg # of iterations =  2.9

     End of self-consistent calculation

[...]

          k = 0.2533-0.1462-0.0653 (  8097 PWs)   bands (ev):

[...]

          k =-0.5065-0.8773-0.1306 (  8116 PWs)   bands (ev):

   -50.1683 -50.1683 -24.5426 -24.5426 -24.2836 -24.2835 -24.2270 -24.2270
    -1.6594  -1.6592  -1.4782  -1.4782   4.7006   4.7008   5.5865   5.5867
     6.5441   6.5445   7.4417   7.4418   8.6234   8.6236   9.6853   9.6855
     9.9455   9.9456  12.9800  12.9801  13.4974  13.4975  14.5412

     the Fermi energy is    11.8824 ev

!    total energy              =    -993.56998094 Ry
     total all-electron energy =    -19390.230403 Ry
     estimated scf accuracy    <          5.6E-10 Ry
     smearing contrib. (-TS)   =      -0.00000000 Ry
     internal energy E=F+TS    =    -993.56998094 Ry

     The total energy is F=E-TS. E is the sum of the following terms:
     one-electron contribution =    -157.59173624 Ry
     hartree contribution      =     105.94135512 Ry
     xc contribution           =     -59.51347867 Ry
     ewald contribution        =    -242.95502182 Ry
     DFT-D3 Dispersion         =      -0.17716558 Ry
     one-center paw contrib.   =    -639.27393375 Ry

     convergence has been achieved in  15 iterations

     Forces acting on atoms (cartesian axes, Ry/au):

     atom    1 type  1   force =     0.00000105   -0.00000046    0.00001041
     atom    2 type  1   force =    -0.00000027    0.00000061   -0.00001187
     atom    3 type  2   force =     0.00000010   -0.00000023   -0.00000504
     atom    4 type  2   force =    -0.00000039    0.00000063    0.00000483
     atom    5 type  2   force =    -0.00000073    0.00000011   -0.00000154
     atom    6 type  2   force =     0.00000024   -0.00000067    0.00000321
     The non-local contrib.  to forces
     atom    1 type  1   force =    -0.00000029    0.00000013   -0.00000441
     atom    2 type  1   force =     0.00000016   -0.00000001    0.00000515
     atom    3 type  2   force =    -0.00000026   -0.00000048    0.26153472
     atom    4 type  2   force =     0.00000019    0.00000074   -0.26153398
     atom    5 type  2   force =    -0.00000080   -0.00000007    0.26152884
     atom    6 type  2   force =     0.00000055   -0.00000039   -0.26152890
     The ionic contribution  to forces
     atom    1 type  1   force =    -0.00000270    0.00000307    0.00992584
     atom    2 type  1   force =     0.00000644   -0.00000186   -0.00993769
     atom    3 type  2   force =     0.00001303    0.00000386  -14.01229354
     atom    4 type  2   force =    -0.00001399   -0.00000083   14.01231708
     atom    5 type  2   force =     0.00001628   -0.00000105  -14.00404465
     atom    6 type  2   force =    -0.00001906   -0.00000319   14.00403297
     The local contribution  to forces
     atom    1 type  1   force =     0.00000413   -0.00000315   -0.00991630
     atom    2 type  1   force =    -0.00000650    0.00000238    0.00992712
     atom    3 type  2   force =    -0.00001277   -0.00000343   13.75280070
     atom    4 type  2   force =     0.00001312    0.00000053  -13.75283168
     atom    5 type  2   force =    -0.00001640    0.00000123   13.74456401
     atom    6 type  2   force =     0.00001862    0.00000285  -13.74454413
     The core correction contribution to forces
     atom    1 type  1   force =     0.00000002   -0.00000000    0.00000015
     atom    2 type  1   force =    -0.00000000    0.00000000   -0.00000019
     atom    3 type  2   force =     0.00000000    0.00000001   -0.00196566
     atom    4 type  2   force =    -0.00000001   -0.00000002    0.00196557
     atom    5 type  2   force =     0.00000001    0.00000000   -0.00196547
     atom    6 type  2   force =    -0.00000001    0.00000001    0.00196554
     The Hubbard contrib.    to forces
     atom    1 type  1   force =     0.00000000    0.00000000    0.00000000
     atom    2 type  1   force =     0.00000000    0.00000000    0.00000000
     atom    3 type  2   force =     0.00000000    0.00000000    0.00000000
     atom    4 type  2   force =     0.00000000    0.00000000    0.00000000
     atom    5 type  2   force =     0.00000000    0.00000000    0.00000000
     atom    6 type  2   force =     0.00000000    0.00000000    0.00000000
     The SCF correction term to forces
     atom    1 type  1   force =    -0.00000016   -0.00000050    0.00000677
     atom    2 type  1   force =    -0.00000043    0.00000008   -0.00000791
     atom    3 type  2   force =     0.00000004   -0.00000019    0.00003368
     atom    4 type  2   force =     0.00000024    0.00000021   -0.00002708
     atom    5 type  2   force =     0.00000013   -0.00000002    0.00003178
     atom    6 type  2   force =     0.00000006    0.00000004   -0.00003833

     DFT-D3 dispersion contribution to forces:
     atom    1 type  1   force =     0.00000000   -0.00000000   -0.00000164
     atom    2 type  1   force =    -0.00000000    0.00000000    0.00000164
     atom    3 type  2   force =     0.00000000   -0.00000000   -0.00011493
     atom    4 type  2   force =    -0.00000000    0.00000000    0.00011492
     atom    5 type  2   force =    -0.00000000    0.00000000   -0.00011607
     atom    6 type  2   force =     0.00000000   -0.00000000    0.00011607

     Total force =     0.000018     Total SCF correction =     0.000067
     SCF correction compared to forces is large: reduce conv_thr to get better values

     Computing stress (Cartesian axis) and pressure

          total   stress  (Ry/bohr**3)                   (kbar)     P=       -0.25
  -0.00000183  -0.00000000  -0.00000000           -0.27       -0.00       -0.00
  -0.00000000  -0.00000183   0.00000000           -0.00       -0.27        0.00
  -0.00000000   0.00000000  -0.00000135           -0.00        0.00       -0.20

     Writing all to output data dir ./outdir/pwscf.save/

     General routines

     Parallel routines

   This run was terminated on:   6:33: 1  19Jul2023

   JOB DONE.