     Program PWSCF v.7.3 starts on 29Apr2024 at  4:24:42

     Waiting for input...
     Reading input from standard input
Warning: card &CELL ignored
Warning: card / ignored

     Current dimensions of program PWSCF are:
     Max number of different atomic species (ntypx) = 10
     Max number of k-points (npk) =  40000
     Max angular momentum in pseudopotentials (lmaxx) =  4
     file Mo.pbe-spn-kjpaw_psl.1.0.0.UPF: wavefunction(s)  4S 4D renormalized
     file S.pbe-n-kjpaw_psl.1.0.0.UPF: wavefunction(s)  3S 3P renormalized
     file Pt.pbe-spfn-kjpaw_psl.1.0.0.UPF: wavefunction(s)  5P 4F renormalized
     file Pd.pbe-spn-kjpaw_psl.1.0.0.UPF: wavefunction(s)  4S 5S 4D renormalized

     R & G space division:  proc/nbgrp/npool/nimage =      36
     Subspace diagonalization in iterative solution of the eigenvalue problem:
     one sub-group per band group will be used

     Using Slab Decomposition

     bravais-lattice index     =            0
     lattice parameter (alat)  =      23.8199  a.u.
     unit-cell volume          =   33861.0370 (a.u.)^3
     number of atoms/cell      =          195
     number of atomic types    =            4
     number of electrons       =      1732.00
     number of Kohn-Sham states=         1039
     kinetic-energy cutoff     =      77.0000  Ry
     charge density cutoff     =     539.0000  Ry
     scf convergence threshold =      1.0E-06
     mixing beta               =       0.2000
     number of iterations used =            8  plain     mixing
     energy convergence thresh.=      1.0E-04
     force convergence thresh. =      1.0E-03
     Exchange-correlation= SLA  PW   PBX  PBC
                           (   1   4   3   4   0   0   0)
     nstep                     =         1000

     Effective Screening Medium Method
     Boundary Conditions: Vacuum-Slab-Vacuum
     total charge in unit cell        =   0.0000
     grid points for fit at edges     =        4

     celldm(1)=  23.819920  celldm(2)=   0.000000  celldm(3)=   0.000000
     celldm(4)=   0.000000  celldm(5)=   0.000000  celldm(6)=   0.000000

     crystal axes: (cart. coord. in units of alat)
               a(1) = (   1.000000   0.000000   0.000000 )
               a(2) = (  -0.499999   0.866026   0.000000 )
               a(3) = (   0.000000   0.000000   2.893000 )

     reciprocal axes: (cart. coord. in units 2 pi/alat)
               b(1) = (  1.000000  0.577349  0.000000 )
               b(2) = (  0.000000  1.154700  0.000000 )
               b(3) = (  0.000000  0.000000  0.345662 )

     PseudoPot. # 1 for Mo read from file:
     ./pseudo/Mo.pbe-spn-kjpaw_psl.1.0.0.UPF
     MD5 check sum: 317bf72632116215fd98f72de1686f13
     Pseudo is Projector augmented-wave + core cor, Zval = 14.0
     Generated using 'atomic' code by A. Dal Corso  v.7.2
     Shape of augmentation charge: PSQ
     Using radial grid of 1229 points,  6 beta functions with:
                l(1) =   0
                l(2) =   0
                l(3) =   1
                l(4) =   1
                l(5) =   2
                l(6) =   2
     Q(r) pseudized with 0 coefficients

     PseudoPot. # 2 for S  read from file:
     ./pseudo/S.pbe-n-kjpaw_psl.1.0.0.UPF
     MD5 check sum: 8b7b5302570d38d5e87fed6a1065abda
     Pseudo is Projector augmented-wave + core cor, Zval =  6.0
     Generated using 'atomic' code by A. Dal Corso  v.7.2
     Shape of augmentation charge: PSQ
     Using radial grid of 1151 points,  6 beta functions with:
                l(1) =   0
                l(2) =   0
                l(3) =   1
                l(4) =   1
                l(5) =   2
                l(6) =   2
     Q(r) pseudized with 0 coefficients

     PseudoPot. # 3 for Pt read from file:
     ./pseudo/Pt.pbe-spfn-kjpaw_psl.1.0.0.UPF
     MD5 check sum: 620096ebf4e6ebacc94de60fd67efcb5
     Pseudo is Projector augmented-wave + core cor, Zval = 32.0
     Generated using 'atomic' code by A. Dal Corso  v.7.2
     Shape of augmentation charge: PSQ
     Using radial grid of 1277 points,  8 beta functions with:
                l(1) =   0
                l(2) =   0
                l(3) =   1
                l(4) =   1
                l(5) =   2
                l(6) =   2
                l(7) =   3
                l(8) =   3
     Q(r) pseudized with 0 coefficients

     PseudoPot. # 4 for Pd read from file:
     ./pseudo/Pd.pbe-spn-kjpaw_psl.1.0.0.UPF
     MD5 check sum: a60571a671f2502b8a6a4569d20a6edb
     Pseudo is Projector augmented-wave + core cor, Zval = 18.0
     Generated using 'atomic' code by A. Dal Corso  v.7.2
     Shape of augmentation charge: PSQ
     Using radial grid of 1235 points,  6 beta functions with:
                l(1) =   0
                l(2) =   0
                l(3) =   1
                l(4) =   1
                l(5) =   2
                l(6) =   2
     Q(r) pseudized with 0 coefficients

     atomic species   valence    mass     pseudopotential
     Mo               14.00    95.95000     Mo( 1.00)
     S                 6.00    32.06000     S ( 1.00)
     Pt               32.00   195.08400     Pt( 1.00)
     Pd               18.00   106.42000     Pd( 1.00)

     No symmetry found

   Cartesian axes

     site n.     atom                  positions (alat units)
         1        Mo     tau(   1) = (   0.0000010   0.1443372  -0.7272732  )
         2        Mo     tau(   2) = (   0.1249995   0.0721706  -0.2424038  )
         3        S      tau(   3) = (   0.0000015   0.1443386  -0.3667807  )
         4        S      tau(   4) = (   0.1250010   0.0721682  -0.6030489  )
         5        S      tau(   5) = (   0.1250010   0.0721683  -0.8514963  )
         6        S      tau(   6) = (   0.0000015   0.1443389  -0.1180260  )
         7        Mo     tau(   7) = (   0.0000005   0.1443381   0.2424561  )
         8        Mo     tau(   8) = (   0.1251981   0.0716023   0.7276027  )
         9        S      tau(   9) = (  -0.0003031   0.1454842   0.6052312  )
        10        S      tau(  10) = (   0.1249558   0.0721599   0.3668208  )
        11        S      tau(  11) = (   0.1250088   0.0721517   0.1180857  )
        12        S      tau(  12) = (  -0.0004157   0.1382876   0.8564685  )
        13        Mo     tau(  13) = (  -0.1249989   0.3608437  -0.7272732  )
        14        Mo     tau(  14) = (   0.0000030   0.2886752  -0.2424042  )
        15        S      tau(  15) = (  -0.1249977   0.3608450  -0.3667802  )
        16        S      tau(  16) = (   0.0000012   0.2886747  -0.6030489  )
        17        S      tau(  17) = (   0.0000012   0.2886748  -0.8514963  )
        18        S      tau(  18) = (  -0.1249977   0.3608454  -0.1180274  )
        19        Mo     tau(  19) = (  -0.1249623   0.3608201   0.2425155  )
        20        Mo     tau(  20) = (  -0.0007801   0.2872696   0.7308518  )
        21        S      tau(  21) = (  -0.1240398   0.3604107   0.6055268  )
        22        S      tau(  22) = (   0.0000411   0.2886546   0.3669163  )
        23        S      tau(  23) = (   0.0000035   0.2886726   0.1180964  )
        24        S      tau(  24) = (  -0.1315418   0.3638985   0.8543850  )
        25        Mo     tau(  25) = (  -0.2499987   0.5773502  -0.7272732  )
        26        Mo     tau(  26) = (  -0.1249977   0.5051839  -0.2424055  )
        27        S      tau(  27) = (  -0.2499981   0.5773518  -0.3667809  )
        28        S      tau(  28) = (  -0.1249986   0.5051812  -0.6030489  )
        29        S      tau(  29) = (  -0.1249986   0.5051813  -0.8514963  )
        30        S      tau(  30) = (  -0.2499979   0.5773512  -0.1180266  )
        31        Mo     tau(  31) = (  -0.2499787   0.5773156   0.2425145  )
        32        Mo     tau(  32) = (  -0.1271807   0.5060660   0.7281741  )
        33        S      tau(  33) = (  -0.2502658   0.5775034   0.6017985  )
        34        S      tau(  34) = (  -0.1249543   0.5051367   0.3669386  )
        35        S      tau(  35) = (  -0.1249864   0.5051552   0.1181399  )
        36        S      tau(  36) = (  -0.2525628   0.5785576   0.8514793  )
        37        Mo     tau(  37) = (  -0.3749985   0.7938567  -0.7272732  )
        38        Mo     tau(  38) = (  -0.2500001   0.7216874  -0.2424031  )
        39        S      tau(  39) = (  -0.3749980   0.7938584  -0.3667800  )
        40        S      tau(  40) = (  -0.2499984   0.7216877  -0.6030489  )
        41        S      tau(  41) = (  -0.2499984   0.7216878  -0.8514963  )
        42        S      tau(  42) = (  -0.3749982   0.7938585  -0.1180264  )
        43        Mo     tau(  43) = (  -0.3750043   0.7938372   0.2424536  )
        44        Mo     tau(  44) = (  -0.2503619   0.7218808   0.7263407  )
        45        S      tau(  45) = (  -0.3755748   0.7941519   0.6023691  )
        46        S      tau(  46) = (  -0.2500067   0.7216811   0.3668312  )
        47        S      tau(  47) = (  -0.2499793   0.7216445   0.1181126  )
        48        S      tau(  48) = (  -0.3746959   0.7932047   0.8515893  )
        49        Mo     tau(  49) = (   0.2500010   0.1443372  -0.7272732  )
        50        Mo     tau(  50) = (   0.3750034   0.0721723  -0.2424032  )
        51        S      tau(  51) = (   0.2500017   0.1443391  -0.3667788  )
        52        S      tau(  52) = (   0.3750010   0.0721682  -0.6030489  )
        53        S      tau(  53) = (   0.3750010   0.0721683  -0.8514963  )
        54        S      tau(  54) = (   0.2500016   0.1443391  -0.1180271  )
        55        Mo     tau(  55) = (   0.2500033   0.1443124   0.2424881  )
        56        Mo     tau(  56) = (   0.3752595   0.0716472   0.7255395  )
        57        S      tau(  57) = (   0.2498544   0.1431280   0.6011361  )
        58        S      tau(  58) = (   0.3750516   0.0721435   0.3668117  )
        59        S      tau(  59) = (   0.3750079   0.0721203   0.1180977  )
        60        S      tau(  60) = (   0.2517312   0.1427646   0.8506906  )
[...]
       181        Mo     tau( 181) = (   0.3750016   0.7938567  -0.7272732  )
       182        Mo     tau( 182) = (   0.5000025   0.7216901  -0.2424039  )
       183        S      tau( 183) = (   0.3750019   0.7938578  -0.3667793  )
       184        S      tau( 184) = (   0.5000016   0.7216877  -0.6030489  )
       185        S      tau( 185) = (   0.5000016   0.7216878  -0.8514963  )
       186        S      tau( 186) = (   0.3750020   0.7938579  -0.1180272  )
       187        Mo     tau( 187) = (   0.3749951   0.7938323   0.2424893  )
       188        Mo     tau( 188) = (   0.4998599   0.7217391   0.7271366  )
       189        S      tau( 189) = (   0.3746033   0.7939741   0.6029663  )
       190        S      tau( 190) = (   0.4999946   0.7216688   0.3668260  )
       191        S      tau( 191) = (   0.4999891   0.7216628   0.1180901  )
       192        S      tau( 192) = (   0.3755955   0.7938624   0.8526444  )
       193        Pt     tau( 193) = (   0.1194898   0.4990527   0.9549993  )
       194        Pd     tau( 194) = (   0.0026419   0.2990244   0.9662205  )
       195        Pd     tau( 195) = (   0.8748144   0.0715591   0.9834225  )

     DFT-D3 Dispersion Correction (3-body terms):
       Reference C6 values for interpolation:

[...]
   -40.6400 -40.6399 -40.6396 -40.6393 -40.6393 -40.6393 -40.6393 -40.6334
   -40.6246 -40.6066 -40.6055 -40.6055 -40.6055 -40.6055 -40.6055 -40.6054
   -40.6053 -40.6053 -40.6046 -40.6046 -40.6046 -40.6046 -40.5997 -40.5940
   -40.5933 -40.5933 -40.5933 -40.5932 -40.5924 -40.5924 -40.5834 -40.5790
   -40.5780 -40.5742 -40.5740 -40.5740 -40.5737 -40.5731 -40.5731 -40.5664
   -40.5577 -40.5570 -40.5570 -40.5570 -40.5569 -40.5561 -40.5561 -40.5486
   -40.5430 -40.5323 -40.5269 -40.5264 -40.5263 -40.5263 -40.5262 -40.5254
   -40.5254 -40.5100 -40.4748 -20.0810 -19.8668 -19.8386 -19.8107 -19.7407
   -19.7157 -19.6310 -19.6197 -19.5496 -19.4994 -19.4017 -19.3983 -19.3106
   -19.3045 -19.2056 -19.2007 -19.0897 -18.9499 -18.8351 -18.7983 -18.7717
   -18.7139 -18.6980 -18.6938 -18.6902 -18.6868 -18.6813 -18.6618 -18.6329
   -18.6201 -18.6170 -18.6017 -18.5837 -18.5707 -18.5549 -18.5335 -18.5235
   -18.5194 -18.5184 -18.5133 -18.4963 -18.4728 -18.4602 -18.4486 -18.4472
   -18.4398 -18.4084 -18.3839 -18.3808 -18.3700 -18.3470 -18.3339 -18.3276
   -18.3040 -18.2975 -18.2846 -18.2627 -18.2425 -18.2324 -18.2105 -18.2072
   -18.1877 -18.1514 -18.1491 -18.1351 -18.1325 -18.1059 -18.0848 -18.0721
   -18.0714 -18.0692 -18.0673 -18.0490 -18.0467 -18.0460 -18.0442 -18.0401
   -18.0392 -18.0350 -18.0316 -18.0246 -18.0166 -18.0107 -18.0056 -17.9867
   -17.9770 -17.9751 -17.9734 -17.9720 -17.9694 -17.9675 -17.9636 -17.9596
   -17.9492 -17.9363 -17.9113 -17.9064 -17.9028 -17.9000 -17.8971 -17.8837
   -17.8682 -17.8597 -17.8517 -17.8495 -17.8451 -17.8205 -17.8130 -17.8100
   -17.8099 -17.7901 -17.7884 -17.7883 -17.7878 -17.7869 -17.7869 -17.7755
   -17.7737 -17.7568 -17.7531 -17.7320 -17.7288 -17.7129 -17.7090 -17.6973
   -17.6951 -17.6890 -17.6887 -12.1969 -11.9227 -11.7143 -11.7025 -11.6570
   -11.6032 -11.5637 -11.4960 -11.4875 -11.4805 -11.4698 -11.4601 -11.4550
   -11.4449 -11.4298 -11.4252 -11.4137 -11.3795 -11.3638 -11.3543 -11.3432
   -11.3254 -11.3193 -11.3061 -11.2981 -11.2737 -11.2644 -11.2529 -11.2413
   -11.2387 -11.2327 -11.2305 -11.2258 -11.2242 -11.1792 -11.1780 -11.1715
   -11.1688 -11.1512 -11.1448 -11.1418 -11.1315 -11.1293 -11.1239 -11.1185
   -11.1055 -11.0972 -11.0864 -11.0554 -11.0490 -11.0414 -11.0259 -10.9833
   -10.9660 -10.9437 -10.9377 -10.9190 -10.9135 -10.9049 -10.8792 -10.8776
   -10.8625 -10.8321 -10.8301 -10.8118 -10.8094 -10.8052 -10.8013 -10.7859
   -10.7816 -10.7810 -10.7802 -10.7786 -10.7771 -10.7738 -10.7712 -10.7625
[...]
    -3.3759  -3.3408  -3.3240  -3.3194  -3.3159  -3.3109  -3.3085  -3.3080
    -3.3063  -3.3021  -3.2859  -3.2606  -3.2554  -3.2530  -3.2511  -3.2472
    -3.2461  -3.2441  -3.2391  -3.2290  -3.2195  -3.2150  -3.2049  -3.2012
    -3.1959  -3.1904  -3.1846  -3.1794  -3.1780  -3.1734  -3.1652  -3.1571
    -3.1491  -3.1468  -3.1428  -3.1320  -3.1296  -3.1296  -3.1131  -3.1062
    -3.0873  -3.0802  -3.0619  -3.0481  -3.0423  -3.0367  -3.0342  -3.0260
    -3.0175  -3.0038  -2.9926  -2.9917  -2.9890  -2.9873  -2.9854  -2.9852
    -2.9791  -2.9716  -2.9710  -2.9687  -2.9629  -2.9577  -2.9550  -2.9538
    -2.9510  -2.9459  -2.9365  -2.9350  -2.9332  -2.9305  -2.9249  -2.9146
    -2.9136  -2.9103  -2.9045  -2.8995  -2.8897  -2.8870  -2.8761  -2.8684
    -2.8595  -2.8527  -2.8466  -2.8458  -2.8433  -2.8010  -2.7758  -2.7714
    -2.7570  -2.7541  -2.7190  -2.7039  -2.6932  -2.6829  -2.6092  -2.5922
    -2.5774  -2.5698  -2.5685  -2.5521  -2.5353  -2.5155  -2.5076  -2.5060
    -2.4977  -2.4970  -2.4952  -2.4940  -2.4868  -2.4483  -2.3838  -2.3787
    -2.3747  -2.3635  -2.3539  -2.3522  -2.3397  -2.3218  -2.3143

     the Fermi energy is    -4.7064 ev

!    total energy              =  -34492.25461101 Ry
     total all-electron energy =   -677498.134297 Ry
     estimated scf accuracy    <          9.6E-09 Ry
     smearing contrib. (-TS)   =      -0.00000031 Ry
     internal energy E=F+TS    =  -34492.25461071 Ry

     The total energy is F=E-TS. E is the sum of the following terms:
     one-electron contribution = 1196749.61379503 Ry
     hartree contribution      = -598551.91308512 Ry
     xc contribution           =   -2041.80661268 Ry
     ewald contribution        = -609084.52969434 Ry
     DFT-D3 Dispersion         =      -5.46896299 Ry
     one-center paw contrib.   =  -21558.15005061 Ry

     convergence has been achieved in  10 iterations

     negative rho (up, down):  9.433E-04 0.000E+00

     Forces acting on atoms (cartesian axes, Ry/au):

     atom    1 type  1   force =    -0.00000200   -0.00000215    0.00068846
     atom    2 type  1   force =     0.00002491   -0.00001073    0.00000303
     atom    3 type  2   force =    -0.00000133   -0.00000193    0.00000183
     atom    4 type  2   force =    -0.00000312   -0.00000175    0.00161498
     atom    5 type  2   force =    -0.00000346   -0.00000230   -0.00235955
     atom    6 type  2   force =     0.00000139    0.00000136    0.00002510
     atom    7 type  1   force =     0.00001979    0.00001184   -0.00000959
     atom    8 type  1   force =     0.00019787   -0.00021958   -0.00006599
     atom    9 type  2   force =     0.00007732   -0.00036977    0.00006751
     atom   10 type  2   force =    -0.00001164   -0.00001748    0.00004362
     atom   11 type  2   force =    -0.00000641    0.00000169    0.00001514
     atom   12 type  2   force =    -0.00083212   -0.00022554    0.00000313
     atom   13 type  1   force =    -0.00000168   -0.00000222    0.00068800
     atom   14 type  1   force =    -0.00001454    0.00001123    0.00000410
     atom   15 type  2   force =     0.00000067   -0.00000162    0.00000382
     atom   16 type  2   force =    -0.00000290   -0.00000170    0.00161502
     atom   17 type  2   force =    -0.00000329   -0.00000223   -0.00235966
     atom   18 type  2   force =     0.00000310   -0.00000137    0.00001178
     atom   19 type  1   force =     0.00000080    0.00000578   -0.00000279
     atom   20 type  1   force =    -0.00006942    0.00032289   -0.00025807
     atom   21 type  2   force =     0.00005027    0.00037332   -0.00076687
     atom   22 type  2   force =    -0.00000752   -0.00001082    0.00004732
     atom   23 type  2   force =     0.00001770   -0.00001660    0.00001858
     atom   24 type  2   force =    -0.00026387    0.00020534    0.00027972
     atom   25 type  1   force =    -0.00000149   -0.00000286    0.00068828
     atom   26 type  1   force =    -0.00000176   -0.00001291    0.00001562
     atom   27 type  2   force =    -0.00000245    0.00000028    0.00000122
     atom   28 type  2   force =    -0.00000301   -0.00000168    0.00161505
     atom   29 type  2   force =    -0.00000328   -0.00000234   -0.00235965
     atom   30 type  2   force =     0.00000388   -0.00000752    0.00002000
     atom   31 type  1   force =     0.00000400   -0.00000487    0.00002921
     atom   32 type  1   force =    -0.00002084   -0.00013472   -0.00006539
     atom   33 type  2   force =    -0.00016559    0.00031463    0.00012779
     atom   34 type  2   force =     0.00000308   -0.00002911    0.00003062
     atom   35 type  2   force =    -0.00000523    0.00001643    0.00002535
     atom   36 type  2   force =     0.00017716    0.00004759   -0.00003011
     atom   37 type  1   force =    -0.00000084   -0.00000267    0.00068781
     atom   38 type  1   force =     0.00002290    0.00001922   -0.00000261
     atom   39 type  2   force =    -0.00000305   -0.00000086    0.00000505
     atom   40 type  2   force =    -0.00000304   -0.00000164    0.00161510
     atom   41 type  2   force =    -0.00000339   -0.00000223   -0.00235952
     atom   42 type  2   force =    -0.00000401   -0.00000054    0.00001477
     atom   43 type  1   force =     0.00000123   -0.00000566   -0.00000149
     atom   44 type  1   force =    -0.00028506    0.00007198    0.00006806
     atom   45 type  2   force =    -0.00020317   -0.00057822   -0.00064617
     atom   46 type  2   force =    -0.00002618    0.00002436    0.00003647
     atom   47 type  2   force =     0.00002515   -0.00001554    0.00002418
     atom   48 type  2   force =     0.00023076    0.00003321    0.00053539
     atom   49 type  1   force =    -0.00000134   -0.00000275    0.00068834
     atom   50 type  1   force =    -0.00002680   -0.00002941    0.00000111
     atom   51 type  2   force =    -0.00000283    0.00000057    0.00000530
     atom   52 type  2   force =    -0.00000333   -0.00000184    0.00161530
     atom   53 type  2   force =    -0.00000351   -0.00000224   -0.00235948
     atom   54 type  2   force =    -0.00000503   -0.00000080    0.00001363
     atom   55 type  1   force =    -0.00000137   -0.00000561   -0.00000060
     atom   56 type  1   force =     0.00004693    0.00004655   -0.00010775
     atom   57 type  2   force =     0.00056382    0.00039458   -0.00032883
     atom   58 type  2   force =     0.00000217    0.00000474    0.00001219
     atom   59 type  2   force =    -0.00000203   -0.00001078    0.00002493
     atom   60 type  2   force =     0.00027482    0.00005791   -0.00009611
[...]
     atom  181 type  1   force =    -0.00000161   -0.00000266    0.00068784
     atom  182 type  1   force =    -0.00001049   -0.00001307    0.00000254
     atom  183 type  2   force =    -0.00000509   -0.00000370    0.00000519
     atom  184 type  2   force =    -0.00000316   -0.00000183    0.00161514
     atom  185 type  2   force =    -0.00000332   -0.00000228   -0.00235957
     atom  186 type  2   force =    -0.00000513   -0.00000655    0.00001796
     atom  187 type  1   force =     0.00000543   -0.00004122    0.00000330
     atom  188 type  1   force =     0.00024294    0.00001962    0.00024926
     atom  189 type  2   force =     0.00002557    0.00086521    0.00062890
     atom  190 type  2   force =     0.00000563   -0.00000303    0.00005453
     atom  191 type  2   force =    -0.00000800    0.00000140    0.00001332
     atom  192 type  2   force =    -0.00000775    0.00056272    0.00024328
     atom  193 type  3   force =     0.00070664    0.00045145   -0.00030035
     atom  194 type  4   force =    -0.00038179   -0.00085195   -0.00043494
     atom  195 type  4   force =     0.00063857    0.00024056   -0.00094608

     Total force =     0.003664     Total SCF correction =     0.000789
     SCF correction compared to forces is large: reduce conv_thr to get better values
     Energy error            =      3.4E-05 Ry
     Gradient error          =      9.5E-04 Ry/Bohr

     bfgs converged in  22 scf cycles and  21 bfgs steps
     (criteria: energy <  1.0E-04 Ry, force <  1.0E-03 Ry/Bohr)

     End of BFGS Geometry Optimization

     Final energy             =  -34492.2546110144 Ry

     File ./outdir/pwscf.bfgs deleted, as requested
Begin final coordinates

ATOMIC_POSITIONS (angstrom)
Mo               0.0000119917        1.8193638619       -9.1672481230    0   0   0
Mo               1.5756136568        0.9097075315       -3.0554901653    0   0   0
S                0.0000188998        1.8193822938       -4.6232556019    0   0   0
S                1.5756321638        0.9096773839       -7.6014065489    0   0   0
S                1.5756326175        0.9096785128      -10.7330757790    0   0   0
S                0.0000189190        1.8193860094       -1.4877129945    0   0   0
Mo              -0.0000769934        1.8190986089        3.0576779988
Mo               1.6005272747        0.8950257388        9.1575191470
S               -0.0196471037        1.8104731333        7.6444474095
S                1.5752462696        0.9094285798        4.6251117643
S                1.5757266238        0.9095061390        1.4898134437
S                0.1052386911        1.8015103791       10.7914680954
Mo              -1.5756053507        4.5484193819       -9.1672481230    0   0   0
Mo               0.0000378379        3.6387394919       -3.0554952701    0   0   0
S               -1.5755913433        4.5484363582       -4.6232494962    0   0   0
S                0.0000148214        3.6387329039       -7.6014065489    0   0   0
S                0.0000152751        3.6387340328      -10.7330757790    0   0   0
S               -1.5755906502        4.5484413613       -1.4877305502    0   0   0
Mo              -1.5751250478        4.5478968149        3.0585947609
Mo              -0.0007795463        3.6292297660        9.1887858526
S               -1.5731670067        4.5466943591        7.6204104711
S                0.0006147644        3.6380731901        4.6268015988
S               -0.0000176954        3.6385510434        1.4902305020
S               -1.6299099888        4.5753494182       10.7575856473
Mo              -3.1512226931        7.2774749019       -9.1672481230    0   0   0
Mo              -1.5755910988        6.3678216792       -3.0555115988    0   0   0
S               -3.1512162438        7.2774954350       -4.6232578178    0   0   0
S               -1.5756025210        6.3677884239       -7.6014065489    0   0   0
S               -1.5756020673        6.3677895528      -10.7330757790    0   0   0
S               -3.1512127704        7.2774877076       -1.4877200710    0   0   0
Mo              -3.1508549089        7.2769658989        3.0574555806
Mo              -1.6007058812        6.3759827156        9.1748377418
S               -3.1526883595        7.2753770161        7.5809060951
S               -1.5748846221        6.3675818481        4.6258874774
S               -1.5752741500        6.3668899099        1.4900544860
S               -3.1807093121        7.2881398647       10.7281057843
Mo              -4.7268400355       10.0065304219       -9.1672481230    0   0   0
Mo              -3.1512405618        9.0968403586       -3.0554816746    0   0   0
S               -4.7268341792       10.0065523623       -4.6232463762    0   0   0
S               -3.1512198634        9.0968439439       -7.6014065489    0   0   0
S               -3.1512194097        9.0968450728      -10.7330757790    0   0   0
S               -4.7268370797       10.0065537885       -1.4877176751    0   0   0
Mo              -4.7268976499       10.0062200617        3.0573929030
Mo              -3.1507971866        9.0947086250        9.1509971083
S               -4.7324464972        9.9987805324        7.5876688741
S               -3.1508279954        9.0965115137        4.6244374436
S               -3.1511497808        9.0963547434        1.4894949207
S               -4.7132516669        9.9991037411       10.7276255702
Mo               3.1512517547        1.8193638619       -9.1672481230    0   0   0
Mo               4.7269020221        0.9097289540       -3.0554823951    0   0   0
S                3.1512612351        1.8193882564       -4.6232320683    0   0   0
S                4.7268719268        0.9096773839       -7.6014065489    0   0   0
S                4.7268723805        0.9096785128      -10.7330757790    0   0   0
S                3.1512592485        1.8193890201       -1.4877261251    0   0   0
Mo               3.1514361172        1.8190330366        3.0576802986
Mo               4.7332509583        0.9038768887        9.1362574866
S                3.1573152150        1.8075707838        7.5649601880
S                4.7278970958        0.9088956423        4.6243456944
S                4.7270623219        0.9093133543        1.4894596653
S                3.1856147695        1.7982624014       10.7151986608
[...]
Mo               4.7268792535       10.0065304219       -9.1672481230    0   0   0
Mo               6.3025111524        9.0968738021       -3.0554915260    0   0   0
S                4.7268840634       10.0065452125       -4.6232380477    0   0   0
S                6.3024994256        9.0968439439       -7.6014065489    0   0   0
S                6.3024998793        9.0968450728      -10.7330757790    0   0   0
S                4.7268847312       10.0065459141       -1.4877283294    0   0   0
Mo               4.7268173400       10.0063772003        3.0573566034
Mo               6.3052540776        9.0900110534        9.1754419868
S                4.7177308774       10.0220981629        7.6416047618
S                6.3019425803        9.0968566949        4.6250832379
S                6.3025091377        9.0965933902        1.4895365841
S                4.7360042465        9.9319158952       10.8062906223
Pt               1.4779074882        6.2638132831       12.0415583833
Pd               0.0046609529        3.7254633877       12.2572448185
Pd              11.0453312281        1.0140709255       12.1432763996
End final coordinates

     Writing all to output data dir ./outdir/pwscf.save/ :
     XML data file, charge density, pseudopotentials, collected wavefunctions

     General routines

     Parallel routines

   This run was terminated on:   5: 2:43   1May2024

   JOB DONE.