     Program PWSCF v.7.3 starts on 23Apr2024 at 19: 2:30

     Waiting for input...
     Reading input from standard input
Warning: card &CELL ignored
Warning: card / ignored

     Current dimensions of program PWSCF are:
     Max number of different atomic species (ntypx) = 10
     Max number of k-points (npk) =  40000
     Max angular momentum in pseudopotentials (lmaxx) =  4
     file Mo.pbe-spn-kjpaw_psl.1.0.0.UPF: wavefunction(s)  4S 4D renormalized
     file S.pbe-n-kjpaw_psl.1.0.0.UPF: wavefunction(s)  3S 3P renormalized
     file Pt.pbe-spfn-kjpaw_psl.1.0.0.UPF: wavefunction(s)  5P 4F renormalized
     file Pd.pbe-spn-kjpaw_psl.1.0.0.UPF: wavefunction(s)  4S 5S 4D renormalized

     R & G space division:  proc/nbgrp/npool/nimage =      36
     Subspace diagonalization in iterative solution of the eigenvalue problem:
     one sub-group per band group will be used

     Using Slab Decomposition

     bravais-lattice index     =            0
     lattice parameter (alat)  =      23.8199  a.u.
     unit-cell volume          =   33861.0370 (a.u.)^3
     number of atoms/cell      =          195
     number of atomic types    =            4
     number of electrons       =      1746.00
     number of Kohn-Sham states=         1048
     kinetic-energy cutoff     =      77.0000  Ry
     charge density cutoff     =     539.0000  Ry
     scf convergence threshold =      1.0E-06
     mixing beta               =       0.2000
     number of iterations used =            8  plain     mixing
     energy convergence thresh.=      1.0E-04
     force convergence thresh. =      1.0E-03
     Exchange-correlation= SLA  PW   PBX  PBC
                           (   1   4   3   4   0   0   0)
     nstep                     =         1000

     Effective Screening Medium Method
     Boundary Conditions: Vacuum-Slab-Vacuum
     total charge in unit cell        =   0.0000
     grid points for fit at edges     =        4

     celldm(1)=  23.819920  celldm(2)=   0.000000  celldm(3)=   0.000000
     celldm(4)=   0.000000  celldm(5)=   0.000000  celldm(6)=   0.000000

     crystal axes: (cart. coord. in units of alat)
               a(1) = (   1.000000   0.000000   0.000000 )
               a(2) = (  -0.499999   0.866026   0.000000 )
               a(3) = (   0.000000   0.000000   2.893000 )

     reciprocal axes: (cart. coord. in units 2 pi/alat)
               b(1) = (  1.000000  0.577349  0.000000 )
               b(2) = (  0.000000  1.154700  0.000000 )
               b(3) = (  0.000000  0.000000  0.345662 )

     PseudoPot. # 1 for Mo read from file:
     ./pseudo/Mo.pbe-spn-kjpaw_psl.1.0.0.UPF
     MD5 check sum: 317bf72632116215fd98f72de1686f13
     Pseudo is Projector augmented-wave + core cor, Zval = 14.0
     Generated using 'atomic' code by A. Dal Corso  v.7.2
     Shape of augmentation charge: PSQ
     Using radial grid of 1229 points,  6 beta functions with:
                l(1) =   0
                l(2) =   0
                l(3) =   1
                l(4) =   1
                l(5) =   2
                l(6) =   2
     Q(r) pseudized with 0 coefficients

     PseudoPot. # 2 for S  read from file:
     ./pseudo/S.pbe-n-kjpaw_psl.1.0.0.UPF
     MD5 check sum: 8b7b5302570d38d5e87fed6a1065abda
     Pseudo is Projector augmented-wave + core cor, Zval =  6.0
     Generated using 'atomic' code by A. Dal Corso  v.7.2
     Shape of augmentation charge: PSQ
     Using radial grid of 1151 points,  6 beta functions with:
                l(1) =   0
                l(2) =   0
                l(3) =   1
                l(4) =   1
                l(5) =   2
                l(6) =   2
     Q(r) pseudized with 0 coefficients

     PseudoPot. # 3 for Pt read from file:
     ./pseudo/Pt.pbe-spfn-kjpaw_psl.1.0.0.UPF
     MD5 check sum: 620096ebf4e6ebacc94de60fd67efcb5
     Pseudo is Projector augmented-wave + core cor, Zval = 32.0
     Generated using 'atomic' code by A. Dal Corso  v.7.2
     Shape of augmentation charge: PSQ
     Using radial grid of 1277 points,  8 beta functions with:
                l(1) =   0
                l(2) =   0
                l(3) =   1
                l(4) =   1
                l(5) =   2
                l(6) =   2
                l(7) =   3
                l(8) =   3
     Q(r) pseudized with 0 coefficients

     PseudoPot. # 4 for Pd read from file:
     ./pseudo/Pd.pbe-spn-kjpaw_psl.1.0.0.UPF
     MD5 check sum: a60571a671f2502b8a6a4569d20a6edb
     Pseudo is Projector augmented-wave + core cor, Zval = 18.0
     Generated using 'atomic' code by A. Dal Corso  v.7.2
     Shape of augmentation charge: PSQ
     Using radial grid of 1235 points,  6 beta functions with:
                l(1) =   0
                l(2) =   0
                l(3) =   1
                l(4) =   1
                l(5) =   2
                l(6) =   2
     Q(r) pseudized with 0 coefficients

     atomic species   valence    mass     pseudopotential
     Mo               14.00    95.95000     Mo( 1.00)
     S                 6.00    32.06000     S ( 1.00)
     Pt               32.00   195.08400     Pt( 1.00)
     Pd               18.00   106.42000     Pd( 1.00)

     No symmetry found

   Cartesian axes

     site n.     atom                  positions (alat units)
         1        Mo     tau(   1) = (   0.0000010   0.1443372  -0.7272732  )
         2        Mo     tau(   2) = (   0.1249995   0.0721706  -0.2424038  )
         3        S      tau(   3) = (   0.0000015   0.1443386  -0.3667807  )
         4        S      tau(   4) = (   0.1250010   0.0721682  -0.6030489  )
         5        S      tau(   5) = (   0.1250010   0.0721683  -0.8514963  )
         6        S      tau(   6) = (   0.0000015   0.1443389  -0.1180260  )
         7        Mo     tau(   7) = (   0.0000005   0.1443381   0.2424561  )
         8        Mo     tau(   8) = (   0.1251981   0.0716023   0.7276027  )
         9        S      tau(   9) = (  -0.0003031   0.1454842   0.6052312  )
        10        S      tau(  10) = (   0.1249558   0.0721599   0.3668208  )
        11        S      tau(  11) = (   0.1250088   0.0721517   0.1180857  )
        12        S      tau(  12) = (  -0.0004157   0.1382876   0.8564685  )
        13        Mo     tau(  13) = (  -0.1249989   0.3608437  -0.7272732  )
        14        Mo     tau(  14) = (   0.0000030   0.2886752  -0.2424042  )
        15        S      tau(  15) = (  -0.1249977   0.3608450  -0.3667802  )
        16        S      tau(  16) = (   0.0000012   0.2886747  -0.6030489  )
        17        S      tau(  17) = (   0.0000012   0.2886748  -0.8514963  )
        18        S      tau(  18) = (  -0.1249977   0.3608454  -0.1180274  )
        19        Mo     tau(  19) = (  -0.1249623   0.3608201   0.2425155  )
        20        Mo     tau(  20) = (  -0.0007801   0.2872696   0.7308518  )
        21        S      tau(  21) = (  -0.1240398   0.3604107   0.6055268  )
        22        S      tau(  22) = (   0.0000411   0.2886546   0.3669163  )
        23        S      tau(  23) = (   0.0000035   0.2886726   0.1180964  )
        24        S      tau(  24) = (  -0.1315418   0.3638985   0.8543850  )
        25        Mo     tau(  25) = (  -0.2499987   0.5773502  -0.7272732  )
        26        Mo     tau(  26) = (  -0.1249977   0.5051839  -0.2424055  )
        27        S      tau(  27) = (  -0.2499981   0.5773518  -0.3667809  )
        28        S      tau(  28) = (  -0.1249986   0.5051812  -0.6030489  )
        29        S      tau(  29) = (  -0.1249986   0.5051813  -0.8514963  )
        30        S      tau(  30) = (  -0.2499979   0.5773512  -0.1180266  )
        31        Mo     tau(  31) = (  -0.2499787   0.5773156   0.2425145  )
        32        Mo     tau(  32) = (  -0.1271807   0.5060660   0.7281741  )
        33        S      tau(  33) = (  -0.2502658   0.5775034   0.6017985  )
        34        S      tau(  34) = (  -0.1249543   0.5051367   0.3669386  )
        35        S      tau(  35) = (  -0.1249864   0.5051552   0.1181399  )
        36        S      tau(  36) = (  -0.2525628   0.5785576   0.8514793  )
        37        Mo     tau(  37) = (  -0.3749985   0.7938567  -0.7272732  )
        38        Mo     tau(  38) = (  -0.2500001   0.7216874  -0.2424031  )
        39        S      tau(  39) = (  -0.3749980   0.7938584  -0.3667800  )
        40        S      tau(  40) = (  -0.2499984   0.7216877  -0.6030489  )
        41        S      tau(  41) = (  -0.2499984   0.7216878  -0.8514963  )
        42        S      tau(  42) = (  -0.3749982   0.7938585  -0.1180264  )
        43        Mo     tau(  43) = (  -0.3750043   0.7938372   0.2424536  )
        44        Mo     tau(  44) = (  -0.2503619   0.7218808   0.7263407  )
        45        S      tau(  45) = (  -0.3755748   0.7941519   0.6023691  )
        46        S      tau(  46) = (  -0.2500067   0.7216811   0.3668312  )
        47        S      tau(  47) = (  -0.2499793   0.7216445   0.1181126  )
        48        S      tau(  48) = (  -0.3746959   0.7932047   0.8515893  )
        49        Mo     tau(  49) = (   0.2500010   0.1443372  -0.7272732  )
        50        Mo     tau(  50) = (   0.3750034   0.0721723  -0.2424032  )
        51        S      tau(  51) = (   0.2500017   0.1443391  -0.3667788  )
        52        S      tau(  52) = (   0.3750010   0.0721682  -0.6030489  )
        53        S      tau(  53) = (   0.3750010   0.0721683  -0.8514963  )
        54        S      tau(  54) = (   0.2500016   0.1443391  -0.1180271  )
        55        Mo     tau(  55) = (   0.2500033   0.1443124   0.2424881  )
        56        Mo     tau(  56) = (   0.3752595   0.0716472   0.7255395  )
        57        S      tau(  57) = (   0.2498544   0.1431280   0.6011361  )
        58        S      tau(  58) = (   0.3750516   0.0721435   0.3668117  )
        59        S      tau(  59) = (   0.3750079   0.0721203   0.1180977  )
        60        S      tau(  60) = (   0.2517312   0.1427646   0.8506906  )
[...]
       181        Mo     tau( 181) = (   0.3750016   0.7938567  -0.7272732  )
       182        Mo     tau( 182) = (   0.5000025   0.7216901  -0.2424039  )
       183        S      tau( 183) = (   0.3750019   0.7938578  -0.3667793  )
       184        S      tau( 184) = (   0.5000016   0.7216877  -0.6030489  )
       185        S      tau( 185) = (   0.5000016   0.7216878  -0.8514963  )
       186        S      tau( 186) = (   0.3750020   0.7938579  -0.1180272  )
       187        Mo     tau( 187) = (   0.3749951   0.7938323   0.2424893  )
       188        Mo     tau( 188) = (   0.4998599   0.7217391   0.7271366  )
       189        S      tau( 189) = (   0.3746033   0.7939741   0.6029663  )
       190        S      tau( 190) = (   0.4999946   0.7216688   0.3668260  )
       191        S      tau( 191) = (   0.4999891   0.7216628   0.1180901  )
       192        S      tau( 192) = (   0.3755955   0.7938624   0.8526444  )
       193        Pt     tau( 193) = (   0.1194898   0.4990527   0.9549993  )
       194        Pd     tau( 194) = (   0.0026419   0.2990244   0.9662205  )
       195        Pt     tau( 195) = (  -0.0004760   0.7231281   0.9755684  )

     DFT-D3 Dispersion Correction (3-body terms):
       Reference C6 values for interpolation:

[...]
   -40.7104 -40.7036 -40.7036 -40.7035 -40.7035 -40.7035 -40.7035 -40.7034
   -40.7033 -40.7026 -40.7026 -40.7026 -40.7026 -40.6930 -40.6897 -40.6881
   -40.6838 -40.6765 -40.6688 -40.6687 -40.6687 -40.6687 -40.6687 -40.6687
   -40.6687 -40.6687 -40.6678 -40.6678 -40.6678 -40.6678 -40.6566 -40.6566
   -40.6566 -40.6566 -40.6556 -40.6556 -40.6544 -40.6493 -40.6438 -40.6406
   -40.6374 -40.6373 -40.6372 -40.6372 -40.6363 -40.6363 -40.6359 -40.6222
   -40.6203 -40.6203 -40.6203 -40.6202 -40.6193 -40.6193 -40.6168 -40.6161
   -40.5921 -40.5896 -40.5896 -40.5896 -40.5896 -40.5886 -40.5886 -40.5769
   -40.5702 -40.5500 -20.3421 -19.9291 -19.9054 -19.8727 -19.8141 -19.7784
   -19.7061 -19.6832 -19.6343 -19.5109 -19.4683 -19.4517 -19.3834 -19.3587
   -19.2826 -19.2604 -19.2204 -18.9267 -18.8857 -18.8351 -18.8108 -18.8058
   -18.7573 -18.7546 -18.7529 -18.7506 -18.7283 -18.7171 -18.6903 -18.6862
   -18.6790 -18.6760 -18.6313 -18.6168 -18.6059 -18.5892 -18.5888 -18.5812
   -18.5740 -18.5600 -18.5499 -18.5231 -18.5150 -18.5116 -18.5029 -18.4795
   -18.4573 -18.4445 -18.4419 -18.4352 -18.4160 -18.3901 -18.3857 -18.3635
   -18.3564 -18.3196 -18.3025 -18.2973 -18.2820 -18.2690 -18.2472 -18.2242
   -18.2192 -18.2058 -18.1827 -18.1676 -18.1578 -18.1491 -18.1364 -18.1348
   -18.1317 -18.1303 -18.1225 -18.1087 -18.1075 -18.1046 -18.1029 -18.0976
   -18.0955 -18.0913 -18.0838 -18.0800 -18.0739 -18.0649 -18.0442 -18.0431
   -18.0390 -18.0362 -18.0327 -18.0319 -18.0295 -18.0234 -18.0204 -18.0141
   -17.9836 -17.9791 -17.9731 -17.9692 -17.9628 -17.9565 -17.9259 -17.9241
   -17.9218 -17.9114 -17.8990 -17.8833 -17.8796 -17.8741 -17.8724 -17.8685
   -17.8525 -17.8522 -17.8518 -17.8508 -17.8504 -17.8498 -17.8387 -17.8361
   -17.8201 -17.8148 -17.7958 -17.7911 -17.7773 -17.7716 -17.7612 -17.7584
   -17.7523 -17.7520 -12.4655 -12.2545 -11.7960 -11.7651 -11.7469 -11.6979
   -11.6531 -11.5593 -11.5565 -11.5387 -11.5316 -11.5308 -11.5152 -11.5089
   -11.4954 -11.4911 -11.4675 -11.4402 -11.4240 -11.4166 -11.4124 -11.3855
   -11.3784 -11.3655 -11.3514 -11.3377 -11.3274 -11.3094 -11.3060 -11.2989
   -11.2933 -11.2893 -11.2872 -11.2619 -11.2483 -11.2361 -11.2320 -11.2280
   -11.2143 -11.2086 -11.2037 -11.1985 -11.1927 -11.1813 -11.1753 -11.1672
   -11.1593 -11.1471 -11.1169 -11.1102 -11.0936 -11.0703 -11.0431 -11.0223
   -10.9925 -10.9873 -10.9696 -10.9588 -10.9472 -10.9433 -10.9343 -10.9096
   -10.9053 -10.8914 -10.8699 -10.8672 -10.8621 -10.8569 -10.8465 -10.8443
[...]
    -3.4242  -3.3874  -3.3838  -3.3822  -3.3771  -3.3737  -3.3712  -3.3692
    -3.3623  -3.3392  -3.3341  -3.3202  -3.3144  -3.3122  -3.3104  -3.3097
    -3.3075  -3.3030  -3.2916  -3.2795  -3.2735  -3.2685  -3.2631  -3.2589
    -3.2555  -3.2477  -3.2433  -3.2394  -3.2333  -3.2252  -3.2189  -3.2149
    -3.2093  -3.2038  -3.1979  -3.1929  -3.1928  -3.1924  -3.1734  -3.1602
    -3.1315  -3.1266  -3.1207  -3.1114  -3.1043  -3.0956  -3.0905  -3.0687
    -3.0614  -3.0570  -3.0532  -3.0526  -3.0518  -3.0514  -3.0456  -3.0433
    -3.0395  -3.0342  -3.0334  -3.0246  -3.0236  -3.0207  -3.0147  -3.0110
    -3.0085  -3.0039  -3.0020  -2.9990  -2.9935  -2.9844  -2.9785  -2.9769
    -2.9740  -2.9657  -2.9626  -2.9528  -2.9455  -2.9399  -2.9314  -2.9253
    -2.9202  -2.9152  -2.9081  -2.9051  -2.8941  -2.8844  -2.8382  -2.8288
    -2.8228  -2.8164  -2.7752  -2.7643  -2.7514  -2.7320  -2.6603  -2.6419
    -2.6297  -2.6246  -2.6114  -2.6041  -2.5928  -2.5761  -2.5722  -2.5634
    -2.5605  -2.5563  -2.5554  -2.5422  -2.5277  -2.4926  -2.4541  -2.4489
    -2.4340  -2.4263  -2.4233  -2.4147  -2.4138  -2.4009  -2.3777  -2.3772

     the Fermi energy is    -4.7584 ev

!    total energy              =  -35654.95800799 Ry
     total all-electron energy =   -704233.503826 Ry
     estimated scf accuracy    <          8.4E-09 Ry
     smearing contrib. (-TS)   =      -0.00000033 Ry
     internal energy E=F+TS    =  -35654.95800766 Ry

     The total energy is F=E-TS. E is the sum of the following terms:
     one-electron contribution = 1224665.52212815 Ry
     hartree contribution      = -612548.88973569 Ry
     xc contribution           =   -2086.31566210 Ry
     ewald contribution        = -623785.86575802 Ry
     DFT-D3 Dispersion         =      -5.47042021 Ry
     one-center paw contrib.   =  -21893.93855978 Ry

     convergence has been achieved in  10 iterations

     negative rho (up, down):  9.167E-04 0.000E+00

     Forces acting on atoms (cartesian axes, Ry/au):

     atom    1 type  1   force =    -0.00000009   -0.00000333    0.00068823
     atom    2 type  1   force =     0.00003281   -0.00000958    0.00000488
     atom    3 type  2   force =    -0.00000032   -0.00000303    0.00000098
     atom    4 type  2   force =    -0.00000130   -0.00000255    0.00161549
     atom    5 type  2   force =    -0.00000156   -0.00000298   -0.00236026
     atom    6 type  2   force =     0.00000802   -0.00000120    0.00003192
     atom    7 type  1   force =     0.00002151   -0.00000129   -0.00006973
     atom    8 type  1   force =    -0.00011398   -0.00002893    0.00007075
     atom    9 type  2   force =    -0.00018993    0.00003042    0.00024714
     atom   10 type  2   force =     0.00001395    0.00002550   -0.00005331
     atom   11 type  2   force =     0.00002889   -0.00004419   -0.00004012
     atom   12 type  2   force =    -0.00017369   -0.00053974    0.00018059
     atom   13 type  1   force =     0.00000047   -0.00000310    0.00068821
     atom   14 type  1   force =    -0.00000558    0.00001474    0.00001463
     atom   15 type  2   force =     0.00000180   -0.00000353    0.00000306
     atom   16 type  2   force =    -0.00000111   -0.00000255    0.00161541
     atom   17 type  2   force =    -0.00000142   -0.00000310   -0.00236039
     atom   18 type  2   force =     0.00000559    0.00000820    0.00002751
     atom   19 type  1   force =     0.00003452    0.00000089   -0.00001146
     atom   20 type  1   force =     0.00002849    0.00002115    0.00016754
     atom   21 type  2   force =    -0.00006712    0.00013647    0.00030825
     atom   22 type  2   force =     0.00002514   -0.00003899   -0.00003270
     atom   23 type  2   force =     0.00001832    0.00003518   -0.00002708
     atom   24 type  2   force =    -0.00009389    0.00010089   -0.00002945
     atom   25 type  1   force =     0.00000028   -0.00000283    0.00068834
     atom   26 type  1   force =     0.00000498   -0.00000421    0.00001702
     atom   27 type  2   force =    -0.00000075   -0.00000127   -0.00000002
     atom   28 type  2   force =    -0.00000111   -0.00000263    0.00161553
     atom   29 type  2   force =    -0.00000132   -0.00000313   -0.00236049
     atom   30 type  2   force =     0.00001058   -0.00000222    0.00002564
     atom   31 type  1   force =     0.00003075    0.00001526   -0.00003867
     atom   32 type  1   force =    -0.00033764    0.00022943    0.00002664
     atom   33 type  2   force =    -0.00022262    0.00045157   -0.00005177
     atom   34 type  2   force =     0.00003927    0.00001321   -0.00004009
     atom   35 type  2   force =     0.00003550   -0.00001451   -0.00002988
     atom   36 type  2   force =    -0.00007945    0.00042496    0.00013168
     atom   37 type  1   force =     0.00000068   -0.00000355    0.00068827
     atom   38 type  1   force =     0.00002973    0.00002092    0.00000079
     atom   39 type  2   force =    -0.00000197   -0.00000222    0.00000391
     atom   40 type  2   force =    -0.00000109   -0.00000247    0.00161554
     atom   41 type  2   force =    -0.00000143   -0.00000314   -0.00236030
     atom   42 type  2   force =     0.00000733    0.00000266    0.00002522
     atom   43 type  1   force =     0.00001040   -0.00001406   -0.00000136
     atom   44 type  1   force =     0.00000684    0.00017184    0.00007975
     atom   45 type  2   force =    -0.00030582    0.00009043    0.00007639
     atom   46 type  2   force =     0.00002371    0.00001262   -0.00004498
     atom   47 type  2   force =    -0.00001031   -0.00000357   -0.00002985
     atom   48 type  2   force =     0.00006948    0.00001327    0.00017488
     atom   49 type  1   force =     0.00000027   -0.00000358    0.00068847
     atom   50 type  1   force =    -0.00002070   -0.00002671   -0.00000164
     atom   51 type  2   force =    -0.00000230   -0.00000087    0.00000435
     atom   52 type  2   force =    -0.00000139   -0.00000267    0.00161577
     atom   53 type  2   force =    -0.00000155   -0.00000305   -0.00236036
     atom   54 type  2   force =     0.00000858    0.00000341    0.00002149
     atom   55 type  1   force =     0.00002577   -0.00001401   -0.00005774
     atom   56 type  1   force =    -0.00012182   -0.00026967   -0.00005092
     atom   57 type  2   force =    -0.00012768   -0.00015737   -0.00015136
     atom   58 type  2   force =     0.00002792    0.00000925   -0.00007189
     atom   59 type  2   force =     0.00004682    0.00000556   -0.00006660
     atom   60 type  2   force =     0.00008182   -0.00009458   -0.00018353
[...]
     atom  181 type  1   force =     0.00000027   -0.00000356    0.00068753
     atom  182 type  1   force =    -0.00000622   -0.00001019    0.00000672
     atom  183 type  2   force =    -0.00000397   -0.00000465    0.00000384
     atom  184 type  2   force =    -0.00000130   -0.00000257    0.00161561
     atom  185 type  2   force =    -0.00000153   -0.00000315   -0.00236024
     atom  186 type  2   force =     0.00000295   -0.00000053    0.00002562
     atom  187 type  1   force =     0.00004718   -0.00001338    0.00000912
     atom  188 type  1   force =     0.00012062   -0.00021038    0.00024821
     atom  189 type  2   force =     0.00019155   -0.00018976    0.00031502
     atom  190 type  2   force =     0.00002285   -0.00007653    0.00002558
     atom  191 type  2   force =     0.00001264    0.00000102    0.00000230
     atom  192 type  2   force =     0.00013208   -0.00010476    0.00012568
     atom  193 type  3   force =    -0.00088036    0.00055136    0.00067772
     atom  194 type  4   force =     0.00018746   -0.00020215   -0.00077026
     atom  195 type  3   force =    -0.00047972    0.00076249    0.00007909

     Total force =     0.002875     Total SCF correction =     0.000744
     SCF correction compared to forces is large: reduce conv_thr to get better values
     Energy error            =      2.2E-05 Ry
     Gradient error          =      8.8E-04 Ry/Bohr

     bfgs converged in  61 scf cycles and  57 bfgs steps
     (criteria: energy <  1.0E-04 Ry, force <  1.0E-03 Ry/Bohr)

     End of BFGS Geometry Optimization

     Final energy             =  -35654.9580079880 Ry

     File ./outdir/pwscf.bfgs deleted, as requested
Begin final coordinates

ATOMIC_POSITIONS (angstrom)
Mo               0.0000119917        1.8193638619       -9.1672481230    0   0   0
Mo               1.5756136568        0.9097075315       -3.0554901653    0   0   0
S                0.0000188998        1.8193822938       -4.6232556019    0   0   0
S                1.5756321638        0.9096773839       -7.6014065489    0   0   0
S                1.5756326175        0.9096785128      -10.7330757790    0   0   0
S                0.0000189190        1.8193860094       -1.4877129945    0   0   0
Mo               0.0019507620        1.8204586875        3.0572367314
Mo               1.5996076878        0.9078410029        9.1836600245
S                0.0184880054        1.8379395997        7.6424019228
S                1.5769069655        0.9109943880        4.6260798067
S                1.5778387831        0.9108505697        1.4901263142
S                0.0150459986        1.7433323908       10.7992702651
Mo              -1.5756053507        4.5484193819       -9.1672481230    0   0   0
Mo               0.0000378379        3.6387394919       -3.0554952701    0   0   0
S               -1.5755913433        4.5484363582       -4.6232494962    0   0   0
S                0.0000148214        3.6387329039       -7.6014065489    0   0   0
S                0.0000152751        3.6387340328      -10.7330757790    0   0   0
S               -1.5755906502        4.5484413613       -1.4877305502    0   0   0
Mo              -1.5738220824        4.5491539852        3.0576898429
Mo               0.0190274386        3.6407661435        9.2151569765
S               -1.5442973261        4.5233736891        7.6164343483
S                0.0016609573        3.6392732752        4.6249799534
S                0.0019057933        3.6399266654        1.4897430424
S               -1.6741345477        4.5715465523       10.7608181694
Mo              -3.1512226931        7.2774749019       -9.1672481230    0   0   0
Mo              -1.5755910988        6.3678216792       -3.0555115988    0   0   0
S               -3.1512162438        7.2774954350       -4.6232578178    0   0   0
S               -1.5756025210        6.3677884239       -7.6014065489    0   0   0
S               -1.5756020673        6.3677895528      -10.7330757790    0   0   0
S               -3.1512127704        7.2774877076       -1.4877200710    0   0   0
Mo              -3.1491363230        7.2785418363        3.0584592908
Mo              -1.5894007026        6.3522259160        9.1616718202
S               -3.1386995655        7.2903337606        7.5855222360
S               -1.5738290373        6.3678726389        4.6265176568
S               -1.5737027779        6.3689767376        1.4906915279
S               -3.1458244284        7.2781212022       10.7313334641
Mo              -4.7268400355       10.0065304219       -9.1672481230    0   0   0
Mo              -3.1512405618        9.0968403586       -3.0554816746    0   0   0
S               -4.7268341792       10.0065523623       -4.6232463762    0   0   0
S               -3.1512198634        9.0968439439       -7.6014065489    0   0   0
S               -3.1512194097        9.0968450728      -10.7330757790    0   0   0
S               -4.7268370797       10.0065537885       -1.4877176751    0   0   0
Mo              -4.7247171140       10.0079091097        3.0580142531
Mo              -3.1444587048        9.0998233245        9.1789355733
S               -4.7047982095       10.0176230879        7.5994656502
S               -3.1489126140        9.0982886723        4.6260888480
S               -3.1491750815        9.0977611064        1.4904607428
S               -4.7247679032        9.9970784689       10.7430904930
Mo               3.1512517547        1.8193638619       -9.1672481230    0   0   0
Mo               4.7269020221        0.9097289540       -3.0554823951    0   0   0
S                3.1512612351        1.8193882564       -4.6232320683    0   0   0
S                4.7268719268        0.9096773839       -7.6014065489    0   0   0
S                4.7268723805        0.9096785128      -10.7330757790    0   0   0
S                3.1512592485        1.8193890201       -1.4877261251    0   0   0
Mo               3.1530824635        1.8202041767        3.0586195988
Mo               4.7394174697        0.9250384189        9.1805316444
S                3.1689429298        1.8072430963        7.5960737583
S                4.7289581632        0.9101388782        4.6262952985
S                4.7283855710        0.9104141224        1.4906172314
S                3.1663637021        1.8377454700       10.7463113882
[...]
Mo               4.7268792535       10.0065304219       -9.1672481230    0   0   0
Mo               6.3025111524        9.0968738021       -3.0554915260    0   0   0
S                4.7268840634       10.0065452125       -4.6232380477    0   0   0
S                6.3024994256        9.0968439439       -7.6014065489    0   0   0
S                6.3024998793        9.0968450728      -10.7330757790    0   0   0
S                4.7268847312       10.0065459141       -1.4877283294    0   0   0
Mo               4.7286343411       10.0079714792        3.0578102290
Mo               6.3177941634        9.1022884453        9.1571170187
S                4.7422516317       10.0183575929        7.5917057907
S                6.3045441777        9.0986940652        4.6253239299
S                6.3043971488        9.0982528861        1.4900840743
S                4.7475416298        9.9966724430       10.7395296040
Pt               0.6431166381        6.3883365086       12.6693908323
Pd               0.0522160539        3.7394302468       12.1142641875
Pt              -0.0594974895        8.9137138690       12.0424810929
End final coordinates

     Writing all to output data dir ./outdir/pwscf.save/ :
     XML data file, charge density, pseudopotentials, collected wavefunctions

     General routines

     Parallel routines

   This run was terminated on:   3: 9:49  25Apr2024

   JOB DONE.