     Program PWSCF v.7.2 starts on 18Dec2023 at  8: 2: 0

     Waiting for input...
     Reading input from standard input
Warning: card &CELL ignored
Warning: card / ignored

     Current dimensions of program PWSCF are:
     Max number of different atomic species (ntypx) = 10
     Max number of k-points (npk) =  40000
     Max angular momentum in pseudopotentials (lmaxx) =  4
     file Mo.pbe-spn-kjpaw_psl.1.0.0.UPF: wavefunction(s)  4S 4D renormalized
     file C.pbe-n-kjpaw_psl.1.0.0.UPF: wavefunction(s)  2S 2P renormalized
     Found identity + (  0.0000 -0.5000  0.0000) symmetry
     This is a supercell, fractional translations are disabled

     R & G space division:  proc/nbgrp/npool/nimage =      36
     Subspace diagonalization in iterative solution of the eigenvalue problem:
     one sub-group per band group will be used

     Using Slab Decomposition

     bravais-lattice index     =            0
     lattice parameter (alat)  =      22.7468  a.u.
     unit-cell volume          =   23608.3613 (a.u.)^3
     number of atoms/cell      =          144
     number of atomic types    =            2
     number of electrons       =      1536.00
     number of Kohn-Sham states=          922
     kinetic-energy cutoff     =      77.0000  Ry
     charge density cutoff     =     539.0000  Ry
     scf convergence threshold =      1.0E-06
     mixing beta               =       0.1000
     number of iterations used =            8  plain     mixing
     energy convergence thresh.=      1.0E-04
     force convergence thresh. =      1.0E-03
     Exchange-correlation= SLA  PW   PBX  PBC
                           (   1   4   3   4   0   0   0)
     nstep                     =         1000

     Effective Screening Medium Method
     Boundary Conditions: Vacuum-Slab-Vacuum
     total charge in unit cell        =   0.0000
     grid points for fit at edges     =        4

     celldm(1)=  22.746779  celldm(2)=   0.000000  celldm(3)=   0.000000
     celldm(4)=   0.000000  celldm(5)=   0.000000  celldm(6)=   0.000000

     crystal axes: (cart. coord. in units of alat)
               a(1) = (   1.000000   0.000000   0.000000 )
               a(2) = (  -0.000001   0.862478   0.000000 )
               a(3) = (   0.000000   0.000000   2.325724 )

     reciprocal axes: (cart. coord. in units 2 pi/alat)
               b(1) = (  1.000000  0.000001  0.000000 )
               b(2) = (  0.000000  1.159450  0.000000 )
               b(3) = (  0.000000  0.000000  0.429974 )

     PseudoPot. # 1 for Mo read from file:
     ./pseudo/Mo.pbe-spn-kjpaw_psl.1.0.0.UPF
     MD5 check sum: 317bf72632116215fd98f72de1686f13
     Pseudo is Projector augmented-wave + core cor, Zval = 14.0
     Generated using 'atomic' code by A. Dal Corso  v.7.2
     Shape of augmentation charge: PSQ
     Using radial grid of 1229 points,  6 beta functions with:
                l(1) =   0
                l(2) =   0
                l(3) =   1
                l(4) =   1
                l(5) =   2
                l(6) =   2
     Q(r) pseudized with 0 coefficients

     PseudoPot. # 2 for C  read from file:
     ./pseudo/C.pbe-n-kjpaw_psl.1.0.0.UPF
     MD5 check sum: 6b0792899573946bb42fe395835041da
     Pseudo is Projector augmented-wave + core cor, Zval =  4.0
     Generated using 'atomic' code by A. Dal Corso  v.7.2
     Shape of augmentation charge: PSQ
     Using radial grid of 1073 points,  4 beta functions with:
                l(1) =   0
                l(2) =   0
                l(3) =   1
                l(4) =   1
     Q(r) pseudized with 0 coefficients

     atomic species   valence    mass     pseudopotential
        Mo            14.00    95.95000     Mo( 1.00)
        C              4.00    12.01100     C ( 1.00)

     No symmetry found

   Cartesian axes

     site n.     atom                  positions (alat units)
         1           Mo  tau(   1) = (   0.0614125   0.0341994  -0.5397868  )
         2           Mo  tau(   2) = (   0.4385842   0.3970405  -0.3405629  )
         3           Mo  tau(   3) = (   0.1885859   0.2498179  -0.5365558  )
         4           Mo  tau(   4) = (   0.3114156   0.1814208  -0.3437956  )
         5           Mo  tau(   5) = (   0.1885857   0.3970400  -0.3437947  )
         6           Mo  tau(   6) = (   0.3114158   0.0341989  -0.5365546  )
         7           Mo  tau(   7) = (   0.0614126   0.1814207  -0.3405637  )
         8           Mo  tau(   8) = (   0.4385844   0.2498173  -0.5397871  )
         9           C   tau(   9) = (   0.1887292   0.1078090  -0.2441831  )
        10           C   tau(  10) = (   0.3112716   0.3234303  -0.2441823  )
        11           C   tau(  11) = (   0.0612691   0.3234296  -0.4401754  )
        12           C   tau(  12) = (   0.4387285   0.1078089  -0.4401750  )
        13           Mo  tau(  13) = (   0.0614120   0.0341994  -0.1478020  )
        14           Mo  tau(  14) = (   0.4385837   0.3970405   0.0514219  )
        15           Mo  tau(  15) = (   0.1885854   0.2498179  -0.1445710  )
        16           Mo  tau(  16) = (   0.3114151   0.1814208   0.0481891  )
        17           Mo  tau(  17) = (   0.1885852   0.3970400   0.0481900  )
        18           Mo  tau(  18) = (   0.3114153   0.0341989  -0.1445699  )
        19           Mo  tau(  19) = (   0.0614121   0.1814207   0.0514211  )
        20           Mo  tau(  20) = (   0.4385839   0.2498173  -0.1478024  )
        21           C   tau(  21) = (   0.1887287   0.1078090   0.1478016  )
        22           C   tau(  22) = (   0.3112711   0.3234303   0.1478024  )
        23           C   tau(  23) = (   0.0612686   0.3234296  -0.0481906  )
        24           C   tau(  24) = (   0.4387280   0.1078088  -0.0481903  )
        25           Mo  tau(  25) = (   0.0614115   0.0341994   0.2441827  )
        26           Mo  tau(  26) = (   0.4385832   0.3970405   0.4434066  )
        27           Mo  tau(  27) = (   0.1885849   0.2498179   0.2474137  )
        28           Mo  tau(  28) = (   0.3114146   0.1814208   0.4401738  )
        29           Mo  tau(  29) = (   0.1885847   0.3970400   0.4401747  )
        30           Mo  tau(  30) = (   0.3114148   0.0341989   0.2474148  )
        31           Mo  tau(  31) = (   0.0614116   0.1814207   0.4434058  )
        32           Mo  tau(  32) = (   0.4385834   0.2498173   0.2441823  )
        33           C   tau(  33) = (   0.1887282   0.1078090   0.5397864  )
        34           C   tau(  34) = (   0.3112706   0.3234303   0.5397871  )
        35           C   tau(  35) = (   0.0612681   0.3234296   0.3437941  )
        36           C   tau(  36) = (   0.4387275   0.1078088   0.3437944  )
        37           Mo  tau(  37) = (   0.0614122   0.4654383  -0.5397868  )
        38           Mo  tau(  38) = (   0.4385838   0.8282794  -0.3405629  )
        39           Mo  tau(  39) = (   0.1885855   0.6810569  -0.5365558  )
        40           Mo  tau(  40) = (   0.3114153   0.6126597  -0.3437956  )
        41           Mo  tau(  41) = (   0.1885854   0.8282789  -0.3437947  )
        42           Mo  tau(  42) = (   0.3114154   0.4654378  -0.5365546  )
        43           Mo  tau(  43) = (   0.0614122   0.6126596  -0.3405637  )
        44           Mo  tau(  44) = (   0.4385840   0.6810562  -0.5397871  )
        45           C   tau(  45) = (   0.1887289   0.5390479  -0.2441831  )
        46           C   tau(  46) = (   0.3112712   0.7546692  -0.2441823  )
        47           C   tau(  47) = (   0.0612687   0.7546685  -0.4401754  )
        48           C   tau(  48) = (   0.4387281   0.5390478  -0.4401750  )
        49           Mo  tau(  49) = (   0.0614116   0.4654383  -0.1478020  )
        50           Mo  tau(  50) = (   0.4385833   0.8282794   0.0514219  )
        51           Mo  tau(  51) = (   0.1885850   0.6810569  -0.1445710  )
        52           Mo  tau(  52) = (   0.3114148   0.6126597   0.0481891  )
        53           Mo  tau(  53) = (   0.1885849   0.8282789   0.0481900  )
        54           Mo  tau(  54) = (   0.3114149   0.4654378  -0.1445699  )
        55           Mo  tau(  55) = (   0.0614117   0.6126596   0.0514211  )
        56           Mo  tau(  56) = (   0.4385835   0.6810562  -0.1478024  )
        57           C   tau(  57) = (   0.1887283   0.5390479   0.1478016  )
        58           C   tau(  58) = (   0.3112707   0.7546692   0.1478024  )
        59           C   tau(  59) = (   0.0612682   0.7546685  -0.0481906  )
        60           C   tau(  60) = (   0.4387276   0.5390478  -0.0481903  )
[...]
       130           C   tau( 130) = (   0.8112707   0.7546692   0.1478024  )
       131           C   tau( 131) = (   0.5612682   0.7546685  -0.0481906  )
       132           C   tau( 132) = (   0.9387276   0.5390478  -0.0481903  )
       133           Mo  tau( 133) = (   0.5614111   0.4654383   0.2441827  )
       134           Mo  tau( 134) = (   0.9385828   0.8282794   0.4434066  )
       135           Mo  tau( 135) = (   0.6885845   0.6810568   0.2474137  )
       136           Mo  tau( 136) = (   0.8114143   0.6126597   0.4401738  )
       137           Mo  tau( 137) = (   0.6885843   0.8282789   0.4401747  )
       138           Mo  tau( 138) = (   0.8114144   0.4654378   0.2474148  )
       139           Mo  tau( 139) = (   0.5614112   0.6126596   0.4434058  )
       140           Mo  tau( 140) = (   0.9385830   0.6810562   0.2441823  )
       141           C   tau( 141) = (   0.6887278   0.5390479   0.5397864  )
       142           C   tau( 142) = (   0.8112702   0.7546692   0.5397871  )
       143           C   tau( 143) = (   0.5612677   0.7546685   0.3437941  )
       144           C   tau( 144) = (   0.9387271   0.5390477   0.3437944  )

     DFT-D3 Dispersion Correction (3-body terms):
       Reference C6 values for interpolation:

         atom   Coordination number   C6
         C          0.000            98.23
         C          0.987            86.49
         C          1.998            58.72
         C          2.999            51.56
         C          3.984            36.41
         Mo         0.000          1691.79
         Mo         1.942          1004.01
         Mo        11.056           674.22

       Values used:

         atom   Coordination number  R0_AB[au]  C6      C8
         Mo         9.786            3.547    674.22  77634.20
         Mo        13.626            3.547    674.22  77634.20
         Mo         8.900            3.547    674.22  77634.20
         Mo        13.620            3.547    674.22  77634.20
         Mo        13.620            3.547    674.22  77634.20
         Mo         8.901            3.547    674.22  77634.20
         Mo        13.626            3.547    674.22  77634.20
         Mo         9.786            3.547    674.22  77634.20
         C          6.054            2.750     36.41   1053.14
         C          6.054            2.750     36.41   1053.14
         C          6.032            2.750     36.41   1053.14
         C          6.032            2.750     36.41   1053.14
         Mo        13.652            3.547    674.22  77634.20
         Mo        13.652            3.547    674.22  77634.20
[...]
     atom   13 type  1   force =     0.00001617   -0.00000232   -0.00010073
     atom   14 type  1   force =    -0.00000246   -0.00000067   -0.00009028
     atom   15 type  1   force =     0.00000071   -0.00000090   -0.00010535
     atom   16 type  1   force =     0.00000460    0.00000580   -0.00009305
     atom   17 type  1   force =    -0.00000710    0.00000494   -0.00009266
     atom   18 type  1   force =    -0.00000521    0.00000323   -0.00010640
     atom   19 type  1   force =     0.00000144    0.00000028   -0.00009192
     atom   20 type  1   force =    -0.00001801   -0.00000641   -0.00009627
     atom   21 type  2   force =    -0.00000274    0.00000013   -0.00001920
     atom   22 type  2   force =     0.00000207   -0.00000079   -0.00001892
     atom   23 type  2   force =     0.00000278    0.00000009   -0.00002844
     atom   24 type  2   force =    -0.00000311    0.00000082   -0.00002831
     atom   25 type  1   force =    -0.00000431    0.00000596   -0.00003311
     atom   26 type  1   force =     0.00001339   -0.00000468   -0.00013300
     atom   27 type  1   force =    -0.00001770    0.00000245   -0.00004520
     atom   28 type  1   force =     0.00000712   -0.00001134   -0.00014328
     atom   29 type  1   force =    -0.00000959   -0.00001345   -0.00014219
     atom   30 type  1   force =     0.00001501    0.00000587   -0.00004636
     atom   31 type  1   force =    -0.00001557   -0.00000229   -0.00013472
     atom   32 type  1   force =     0.00000340    0.00000221   -0.00003319
     atom   33 type  2   force =    -0.00000295   -0.00000067   -0.00003826
     atom   34 type  2   force =     0.00000208   -0.00000138   -0.00003786
     atom   35 type  2   force =    -0.00000413   -0.00000178   -0.00001654
     atom   36 type  2   force =     0.00000371   -0.00000074   -0.00001695
     atom   37 type  1   force =     0.00000000    0.00000000    0.00000000
     atom   38 type  1   force =     0.00000000    0.00000000    0.00000000
     atom   39 type  1   force =     0.00000000    0.00000000    0.00000000
     atom   40 type  1   force =     0.00000000    0.00000000    0.00000000
     atom   41 type  1   force =     0.00000000    0.00000000    0.00000000
     atom   42 type  1   force =     0.00000000    0.00000000    0.00000000
     atom   43 type  1   force =     0.00000000    0.00000000    0.00000000
     atom   44 type  1   force =     0.00000000    0.00000000    0.00000000
     atom   45 type  2   force =     0.00000000    0.00000000    0.00000000
     atom   46 type  2   force =     0.00000000    0.00000000    0.00000000
     atom   47 type  2   force =     0.00000000    0.00000000    0.00000000
     atom   48 type  2   force =     0.00000000    0.00000000    0.00000000
     atom   49 type  1   force =     0.00001617   -0.00000288   -0.00009839
     atom   50 type  1   force =    -0.00000249    0.00000402   -0.00009216
     atom   51 type  1   force =     0.00000071    0.00000650   -0.00010702
     atom   52 type  1   force =     0.00000466    0.00000887   -0.00009322
     atom   53 type  1   force =    -0.00000704    0.00000973   -0.00009439
     atom   54 type  1   force =    -0.00000520    0.00000249   -0.00010424
     atom   55 type  1   force =     0.00000142    0.00000317   -0.00009229
     atom   56 type  1   force =    -0.00001804    0.00000110   -0.00009791
     atom   57 type  2   force =    -0.00000271   -0.00000016   -0.00001895
     atom   58 type  2   force =     0.00000210    0.00000081   -0.00001936
     atom   59 type  2   force =     0.00000275    0.00000199   -0.00002906
     atom   60 type  2   force =    -0.00000318    0.00000131   -0.00002814
[...]
     atom  130 type  2   force =     0.00000138    0.00000084   -0.00001449
     atom  131 type  2   force =    -0.00000213    0.00000193   -0.00002497
     atom  132 type  2   force =     0.00000248    0.00000123   -0.00002512
     atom  133 type  1   force =     0.00001443    0.00000215   -0.00002889
     atom  134 type  1   force =    -0.00000646   -0.00000020   -0.00013574
     atom  135 type  1   force =    -0.00000770    0.00000538   -0.00003683
     atom  136 type  1   force =     0.00000207   -0.00001174   -0.00014754
     atom  137 type  1   force =     0.00000088   -0.00000927   -0.00014710
     atom  138 type  1   force =     0.00001016    0.00000198   -0.00003569
     atom  139 type  1   force =     0.00000661   -0.00000262   -0.00013497
     atom  140 type  1   force =    -0.00001348    0.00000542   -0.00002913
     atom  141 type  2   force =     0.00000020   -0.00000155   -0.00004070
     atom  142 type  2   force =     0.00000038   -0.00000067   -0.00004090
     atom  143 type  2   force =     0.00000324   -0.00000053   -0.00001655
     atom  144 type  2   force =    -0.00000294   -0.00000166   -0.00001639

     DFT-D3 dispersion contribution to forces:
     atom    1 type  1   force =     0.00015497    0.00010282    0.00651074
     atom    2 type  1   force =     0.00010195   -0.00000592    0.00362825
     atom    3 type  1   force =     0.00019893   -0.00010246    0.00674260
     atom    4 type  1   force =     0.00003354    0.00000391    0.00331162
     atom    5 type  1   force =    -0.00003353    0.00000388    0.00331158
     atom    6 type  1   force =    -0.00019894   -0.00010247    0.00674258
     atom    7 type  1   force =    -0.00010193   -0.00000589    0.00362827
     atom    8 type  1   force =    -0.00015495    0.00010284    0.00651075
     atom    9 type  2   force =    -0.00006309   -0.00000018    0.00021589
     atom   10 type  2   force =     0.00006310   -0.00000019    0.00021589
     atom   11 type  2   force =    -0.00001657   -0.00000258    0.00199236
     atom   12 type  2   force =     0.00001658   -0.00000259    0.00199237
     atom   13 type  1   force =    -0.00004796    0.00000927   -0.00005101
     atom   14 type  1   force =     0.00002914   -0.00000184    0.00018014
     atom   15 type  1   force =     0.00003937    0.00000178    0.00042853
     atom   16 type  1   force =    -0.00004093   -0.00000789   -0.00022680
     atom   17 type  1   force =     0.00004093   -0.00000789   -0.00022678
     atom   18 type  1   force =    -0.00003935    0.00000180    0.00042854
     atom   19 type  1   force =    -0.00002913   -0.00000181    0.00018016
     atom   20 type  1   force =     0.00004798    0.00000925   -0.00005100
     atom   21 type  2   force =    -0.00004605   -0.00000416   -0.00008622
     atom   22 type  2   force =     0.00004604   -0.00000416   -0.00008622
     atom   23 type  2   force =     0.00005430   -0.00000211    0.00000031
     atom   24 type  2   force =    -0.00005431   -0.00000211    0.00000031
     atom   25 type  1   force =    -0.00002083   -0.00001410   -0.00277481
     atom   26 type  1   force =    -0.00001474    0.00000913   -0.00612020
     atom   27 type  1   force =     0.00003144    0.00002327   -0.00246364
     atom   28 type  1   force =    -0.00005392    0.00001183   -0.00653904
     atom   29 type  1   force =     0.00005390    0.00001183   -0.00653904
     atom   30 type  1   force =    -0.00003147    0.00002328   -0.00246364
     atom   31 type  1   force =     0.00001473    0.00000914   -0.00612021
     atom   32 type  1   force =     0.00002082   -0.00001411   -0.00277481
     atom   33 type  2   force =     0.00000782   -0.00002648   -0.00315486
     atom   34 type  2   force =    -0.00000782   -0.00002648   -0.00315486
     atom   35 type  2   force =     0.00008017    0.00000570   -0.00159389
     atom   36 type  2   force =    -0.00008018    0.00000569   -0.00159389
     atom   37 type  1   force =     0.00015497    0.00010282    0.00651074
     atom   38 type  1   force =     0.00010195   -0.00000592    0.00362825
     atom   39 type  1   force =     0.00019893   -0.00010246    0.00674260
     atom   40 type  1   force =     0.00003354    0.00000391    0.00331162
     atom   41 type  1   force =    -0.00003353    0.00000388    0.00331158
     atom   42 type  1   force =    -0.00019894   -0.00010247    0.00674258
     atom   43 type  1   force =    -0.00010193   -0.00000589    0.00362827
     atom   44 type  1   force =    -0.00015495    0.00010284    0.00651075
     atom   45 type  2   force =    -0.00006309   -0.00000018    0.00021589
     atom   46 type  2   force =     0.00006310   -0.00000019    0.00021589
     atom   47 type  2   force =    -0.00001657   -0.00000258    0.00199236
     atom   48 type  2   force =     0.00001658   -0.00000259    0.00199237
     atom   49 type  1   force =    -0.00004796    0.00000927   -0.00005101
     atom   50 type  1   force =     0.00002914   -0.00000184    0.00018014
     atom   51 type  1   force =     0.00003937    0.00000178    0.00042853
     atom   52 type  1   force =    -0.00004093   -0.00000789   -0.00022680
     atom   53 type  1   force =     0.00004093   -0.00000789   -0.00022678
     atom   54 type  1   force =    -0.00003935    0.00000180    0.00042854
     atom   55 type  1   force =    -0.00002914   -0.00000182    0.00018016
     atom   56 type  1   force =     0.00004798    0.00000925   -0.00005100
     atom   57 type  2   force =    -0.00004605   -0.00000416   -0.00008622
     atom   58 type  2   force =     0.00004604   -0.00000416   -0.00008622
     atom   59 type  2   force =     0.00005430   -0.00000211    0.00000031
     atom   60 type  2   force =    -0.00005431   -0.00000211    0.00000031
[...]
     atom  130 type  2   force =     0.00004604   -0.00000416   -0.00008622
     atom  131 type  2   force =     0.00005432   -0.00000211    0.00000031
     atom  132 type  2   force =    -0.00005432   -0.00000211    0.00000031
     atom  133 type  1   force =    -0.00002077   -0.00001410   -0.00277481
     atom  134 type  1   force =    -0.00001476    0.00000914   -0.00612020
     atom  135 type  1   force =     0.00003148    0.00002327   -0.00246365
     atom  136 type  1   force =    -0.00005391    0.00001183   -0.00653905
     atom  137 type  1   force =     0.00005392    0.00001183   -0.00653905
     atom  138 type  1   force =    -0.00003147    0.00002327   -0.00246365
     atom  139 type  1   force =     0.00001476    0.00000913   -0.00612021
     atom  140 type  1   force =     0.00002078   -0.00001412   -0.00277482
     atom  141 type  2   force =     0.00000783   -0.00002648   -0.00315487
     atom  142 type  2   force =    -0.00000782   -0.00002648   -0.00315487
     atom  143 type  2   force =     0.00008019    0.00000570   -0.00159389
     atom  144 type  2   force =    -0.00008019    0.00000569   -0.00159389

     Total force =     0.004991     Total SCF correction =     0.000785
     SCF correction compared to forces is large: reduce conv_thr to get better values
     Energy error            =      5.8E-05 Ry
     Gradient error          =      8.3E-04 Ry/Bohr

     bfgs converged in  18 scf cycles and  17 bfgs steps
     (criteria: energy <  1.0E-04 Ry, force <  1.0E-03 Ry/Bohr)

     End of BFGS Geometry Optimization

     Final energy             =  -35823.4198155779 Ry

     File ./outdir/pwscf.bfgs deleted, as requested
Begin final coordinates

ATOMIC_POSITIONS (angstrom)
Mo            0.7392271268        0.4116609784       -6.4974548687    0   0   0
Mo            5.2792716252        4.7792074803       -4.0993813991    0   0   0
Mo            2.2700228412        3.0070779517       -6.4585630940    0   0   0
Mo            3.7485340062        2.1837762659       -4.1382946513    0   0   0
Mo            2.2700209252        4.7792014280       -4.1382832936    0   0   0
Mo            3.7485359146        0.4116545523       -6.4585490231    0   0   0
Mo            0.7392281493        2.1837751174       -4.0993909962    0   0   0
Mo            5.2792740478        3.0070703458       -6.4974591991    0   0   0
C             2.2717480839        1.2977056085       -2.9392505668    0   0   0
C             3.7468001844        3.8931553252       -2.9392414489    0   0   0
C             0.7375007205        3.8931474706       -5.2984248043    0   0   0
C             5.2810087430        1.2977035383       -5.2984205416    0   0   0
Mo            0.7273732797        0.4140381356       -1.7861063876
Mo            5.2926452039        4.7858804020        0.6321168804
Mo            2.2821223619        3.0132217842       -1.7375823826
Mo            3.7480106497        2.1784069261        0.5892367823
Mo            2.2705225954        4.7738358170        0.5892383180
Mo            3.7364146342        0.4177943871       -1.7375663852
Mo            0.7258891469        2.1904685057        0.6321153447
Mo            5.2911629044        3.0094601661       -1.7861072498
C             2.2640230940        1.3046931615        1.7821660581
C             3.7545059799        3.9001257960        1.7821641969
C             0.7413154525        3.8965944351       -0.5818759209
C             5.2772219077        1.3011513570       -0.5818675594
Mo            0.7494558520        0.4101457187        2.9370587322
Mo            5.2527154634        4.7396286267        5.2552945815
Mo            2.2641625567        3.0171628388        2.9837693111
Mo            3.6754828212        2.1933612461        5.3308130640
Mo            2.3430224937        4.7887818616        5.3308145743
Mo            3.7543534388        0.4217279886        2.9837704750
Mo            0.7657974486        2.1442035080        5.2552905198
Mo            5.2690635969        3.0055672234        2.9370586991
C             2.1916020997        1.2877858304        6.3040110355
C             3.8269089658        3.8832185091        6.3040181552
C             0.7736405232        3.8996415976        4.1727784041
C             5.2448817015        1.3042081859        4.1727729191
Mo            0.7392229129        5.6025171174       -6.4974548687    0   0   0
Mo            5.2792674113        9.9700636193       -4.0993813991    0   0   0
Mo            2.2700186273        8.1979340907       -6.4585630940    0   0   0
Mo            3.7485297923        7.3746324049       -4.1382946513    0   0   0
Mo            2.2700167112        9.9700575670       -4.1382832936    0   0   0
Mo            3.7485317007        5.6025106913       -6.4585490231    0   0   0
Mo            0.7392239354        7.3746312564       -4.0993909962    0   0   0
Mo            5.2792698338        8.1979264848       -6.4974591991    0   0   0
C             2.2717438700        6.4885617475       -2.9392505668    0   0   0
C             3.7467959704        9.0840114642       -2.9392414489    0   0   0
C             0.7374965066        9.0840036096       -5.2984248043    0   0   0
C             5.2810045290        6.4885596773       -5.2984205416    0   0   0
Mo            0.7273687036        5.6048936385       -1.7861075066
Mo            5.2926412937        9.9767368182        0.6321162201
Mo            2.2821185977        8.2040774306       -1.7375823481
Mo            3.7480054011        7.3692628361        0.5892361869
Mo            2.2705176833        9.9646912476        0.5892386713
Mo            3.7364106273        5.6086499231       -1.7375666181
Mo            0.7258848185        7.3813238050        0.6321143860
Mo            5.2911585617        8.2003162346       -1.7861078444
C             2.2640186800        6.4955494421        1.7821662682
C             3.7545015400        9.0909816356        1.7821644507
C             0.7413110814        9.0874502588       -0.5818769591
C             5.2772173421        6.4920071773       -0.5818675986
[...]
C             9.7730338861        9.0909803418        1.7821656388
C             6.7598544301        9.0874516433       -0.5818764452
C            11.2957506710        6.4920086295       -0.5818679380
Mo            6.7680035012        5.6010025746        2.9370564833
Mo           11.2712405155        9.9304843157        5.2552817111
Mo            8.2827077035        8.2080192650        2.9837705052
Mo            9.6940156365        7.3842179995        5.3308007807
Mo            8.3615585978        9.9796358330        5.3308199759
Mo            9.7728896617        5.6125837191        2.9837702299
Mo            6.7843366205        7.3350587785        5.2552980709
Mo           11.2875910936        8.1964239954        2.9370669723
C             8.2101376450        6.4786399406        6.3040160979
C             9.8454421355        9.0740721062        6.3040121838
C             6.7921765259        9.0904942695        4.1727710515
C            11.2634078894        6.4950669333        4.1727766135
End final coordinates

     Writing all to output data dir ./outdir/pwscf.save/

     General routines

     Parallel routines

   This run was terminated on:  13:53:13  20Dec2023

   JOB DONE.
Application 11516982 resources: utime ~6901439s, stime ~77565s, Rss ~2041020, inblocks ~0, outblocks ~36459512