     Program PWSCF v.7.3 starts on  8Mar2024 at 22:48: 3

     Waiting for input...
     Reading input from standard input
Warning: card &CELL ignored
Warning: card / ignored

     Current dimensions of program PWSCF are:
     Max number of different atomic species (ntypx) = 10
     Max number of k-points (npk) =  40000
     Max angular momentum in pseudopotentials (lmaxx) =  4
     file Mo.pbe-spn-kjpaw_psl.1.0.0.UPF: wavefunction(s)  4S 4D renormalized
     file S.pbe-n-kjpaw_psl.1.0.0.UPF: wavefunction(s)  3S 3P renormalized
     file Pt.pbe-spfn-kjpaw_psl.1.0.0.UPF: wavefunction(s)  5P 4F renormalized
     file Pd.pbe-spn-kjpaw_psl.1.0.0.UPF: wavefunction(s)  4S 5S 4D renormalized

     R & G space division:  proc/nbgrp/npool/nimage =      36
     Subspace diagonalization in iterative solution of the eigenvalue problem:
     one sub-group per band group will be used

     Using Slab Decomposition

     bravais-lattice index     =            0
     lattice parameter (alat)  =      23.8395  a.u.
     unit-cell volume          =   28182.8498 (a.u.)^3
     number of atoms/cell      =          146
     number of atomic types    =            4
     number of electrons       =      1298.00
     number of Kohn-Sham states=          779
     kinetic-energy cutoff     =      77.0000  Ry
     charge density cutoff     =     539.0000  Ry
     scf convergence threshold =      1.0E-06
     mixing beta               =       0.2000
     number of iterations used =            8  plain     mixing
     energy convergence thresh.=      1.0E-04
     force convergence thresh. =      1.0E-03
     Exchange-correlation= SLA  PW   PBX  PBC
                           (   1   4   3   4   0   0   0)
     nstep                     =         1000

     Effective Screening Medium Method
     Boundary Conditions: Vacuum-Slab-Vacuum
     total charge in unit cell        =   0.0000
     grid points for fit at edges     =        4

     celldm(1)=  23.839504  celldm(2)=   0.000000  celldm(3)=   0.000000
     celldm(4)=   0.000000  celldm(5)=   0.000000  celldm(6)=   0.000000

     crystal axes: (cart. coord. in units of alat)
               a(1) = (   1.000000   0.000000   0.000000 )
               a(2) = (  -0.500001   0.866026   0.000000 )
               a(3) = (   0.000000   0.000000   2.401941 )

     reciprocal axes: (cart. coord. in units 2 pi/alat)
               b(1) = (  1.000000  0.577351  0.000000 )
               b(2) = (  0.000000  1.154700  0.000000 )
               b(3) = (  0.000000  0.000000  0.416330 )

     PseudoPot. # 1 for Mo read from file:
     ./pseudo/Mo.pbe-spn-kjpaw_psl.1.0.0.UPF
     MD5 check sum: 317bf72632116215fd98f72de1686f13
     Pseudo is Projector augmented-wave + core cor, Zval = 14.0
     Generated using 'atomic' code by A. Dal Corso  v.7.2
     Shape of augmentation charge: PSQ
     Using radial grid of 1229 points,  6 beta functions with:
                l(1) =   0
                l(2) =   0
                l(3) =   1
                l(4) =   1
                l(5) =   2
                l(6) =   2
     Q(r) pseudized with 0 coefficients

     PseudoPot. # 2 for S  read from file:
     ./pseudo/S.pbe-n-kjpaw_psl.1.0.0.UPF
     MD5 check sum: 8b7b5302570d38d5e87fed6a1065abda
     Pseudo is Projector augmented-wave + core cor, Zval =  6.0
     Generated using 'atomic' code by A. Dal Corso  v.7.2
     Shape of augmentation charge: PSQ
     Using radial grid of 1151 points,  6 beta functions with:
                l(1) =   0
                l(2) =   0
                l(3) =   1
                l(4) =   1
                l(5) =   2
                l(6) =   2
     Q(r) pseudized with 0 coefficients

     PseudoPot. # 3 for Pt read from file:
     ./pseudo/Pt.pbe-spfn-kjpaw_psl.1.0.0.UPF
     MD5 check sum: 620096ebf4e6ebacc94de60fd67efcb5
     Pseudo is Projector augmented-wave + core cor, Zval = 32.0
     Generated using 'atomic' code by A. Dal Corso  v.7.2
     Shape of augmentation charge: PSQ
     Using radial grid of 1277 points,  8 beta functions with:
                l(1) =   0
                l(2) =   0
                l(3) =   1
                l(4) =   1
                l(5) =   2
                l(6) =   2
                l(7) =   3
                l(8) =   3
     Q(r) pseudized with 0 coefficients

     PseudoPot. # 4 for Pd read from file:
     ./pseudo/Pd.pbe-spn-kjpaw_psl.1.0.0.UPF
     MD5 check sum: a60571a671f2502b8a6a4569d20a6edb
     Pseudo is Projector augmented-wave + core cor, Zval = 18.0
     Generated using 'atomic' code by A. Dal Corso  v.7.2
     Shape of augmentation charge: PSQ
     Using radial grid of 1235 points,  6 beta functions with:
                l(1) =   0
                l(2) =   0
                l(3) =   1
                l(4) =   1
                l(5) =   2
                l(6) =   2
     Q(r) pseudized with 0 coefficients

     atomic species   valence    mass     pseudopotential
     Mo               14.00    95.95000     Mo( 1.00)
     S                 6.00    32.06000     S ( 1.00)
     Pt               32.00   195.08400     Pt( 1.00)
     Pd               18.00   106.42000     Pd( 1.00)

     No symmetry found

   Cartesian axes

     site n.     atom                  positions (alat units)
         1        Mo     tau(   1) = (   0.1245066   0.2151403   0.4829270  )
         2        Mo     tau(   2) = (   0.1250004   0.0721694  -0.4825273  )
         3        Mo     tau(   3) = (   0.0000143   0.1443586  -0.0000404  )
         4        S      tau(   4) = (   0.0000004   0.0000006  -0.6064556  )
         5        S      tau(   5) = (   0.1249859   0.0722111  -0.1241825  )
         6        S      tau(   6) = (   0.0002990   0.1445714   0.3572522  )
         7        S      tau(   7) = (   0.0000004   0.0000005  -0.3584711  )
         8        S      tau(   8) = (   0.1250243   0.0721377   0.1241202  )
         9        S      tau(   9) = (  -0.0011552   0.1430195   0.6061730  )
        10        Mo     tau(  10) = (  -0.0014303   0.4332690   0.4829269  )
        11        Mo     tau(  11) = (   0.0000001   0.2886759  -0.4825273  )
        12        Mo     tau(  12) = (  -0.1249759   0.3608474  -0.0000404  )
        13        S      tau(  13) = (  -0.1249999   0.2165071  -0.6064556  )
        14        S      tau(  14) = (   0.0000250   0.2886908  -0.1241273  )
        15        S      tau(  15) = (  -0.1246483   0.3609863   0.3572522  )
        16        S      tau(  16) = (  -0.1249998   0.2165070  -0.3584711  )
        17        S      tau(  17) = (   0.0000923   0.2887297   0.1242244  )
        18        S      tau(  18) = (  -0.1267194   0.3605027   0.6061730  )
        19        Mo     tau(  19) = (  -0.1251617   0.6496109   0.4820319  )
        20        Mo     tau(  20) = (  -0.1250002   0.5051824  -0.4825273  )
        21        Mo     tau(  21) = (  -0.2500022   0.5773395  -0.0001503  )
        22        S      tau(  22) = (  -0.2500002   0.4330136  -0.6064556  )
        23        S      tau(  23) = (  -0.1249718   0.5051500  -0.1241823  )
        24        S      tau(  24) = (  -0.2500018   0.5776353   0.3574746  )
        25        S      tau(  25) = (  -0.2500001   0.4330135  -0.3584711  )
        26        S      tau(  26) = (  -0.1250162   0.5052198   0.1241203  )
        27        S      tau(  27) = (  -0.2500018   0.5771316   0.6060170  )
        28        Mo     tau(  28) = (   0.2499988  -0.0001852   0.4820322  )
        29        Mo     tau(  29) = (  -0.2500004   0.7216889  -0.4825273  )
        30        Mo     tau(  30) = (  -0.3750121   0.7938628  -0.0001504  )
        31        S      tau(  31) = (  -0.3750004   0.6495201  -0.6064556  )
        32        S      tau(  32) = (  -0.2500022   0.7216884  -0.1242395  )
        33        S      tau(  33) = (  -0.3747547   0.7937137   0.3574746  )
        34        S      tau(  34) = (  -0.3750004   0.6495200  -0.3584711  )
        35        S      tau(  35) = (  -0.2500023   0.7216883   0.1240244  )
        36        S      tau(  36) = (  -0.3751912   0.7939655   0.6060169  )
        37        Mo     tau(  37) = (   0.3754907   0.2151405   0.4829271  )
        38        Mo     tau(  38) = (   0.3750004   0.0721694  -0.4825273  )
        39        Mo     tau(  39) = (   0.2499984   0.1443573  -0.0000731  )
        40        S      tau(  40) = (   0.2500004   0.0000006  -0.6064556  )
        41        S      tau(  41) = (   0.3750112   0.0722112  -0.1241824  )
        42        S      tau(  42) = (   0.2499987   0.1444686   0.3583292  )
        43        S      tau(  43) = (   0.2500004   0.0000005  -0.3584711  )
        44        S      tau(  44) = (   0.3749727   0.0721378   0.1241202  )
        45        S      tau(  45) = (   0.2499989   0.1436262   0.6067914  )
        46        Mo     tau(  46) = (   0.2499982   0.4330120   0.4873213  )
        47        Mo     tau(  47) = (   0.2500001   0.2886759  -0.4825273  )
        48        Mo     tau(  48) = (   0.1250313   0.3608632  -0.0000369  )
        49        S      tau(  49) = (   0.1250001   0.2165071  -0.6064556  )
        50        S      tau(  50) = (   0.2499984   0.2886902  -0.1241509  )
        51        S      tau(  51) = (   0.1269276   0.3619573   0.3622727  )
        52        S      tau(  52) = (   0.1250002   0.2165070  -0.3584711  )
        53        S      tau(  53) = (   0.2499983   0.2886817   0.1242427  )
        54        S      tau(  54) = (   0.1143670   0.3547054   0.6129634  )
        55        Mo     tau(  55) = (   0.1240620   0.6506275   0.4829270  )
        56        Mo     tau(  56) = (   0.1249998   0.5051824  -0.4825273  )
        57        Mo     tau(  57) = (   0.0000150   0.5773409  -0.0000731  )
        58        S      tau(  58) = (  -0.0000002   0.4330136  -0.6064556  )
        59        S      tau(  59) = (   0.1250108   0.5051746  -0.1241509  )
        60        S      tau(  60) = (   0.0001121   0.5772840   0.3583290  )
[...]
       132        S      tau( 132) = (   0.4998845   0.5772841   0.3583289  )
       133        S      tau( 133) = (   0.4999999   0.4330135  -0.3584711  )
       134        S      tau( 134) = (   0.6250119   0.5052197   0.1241202  )
       135        S      tau( 135) = (   0.5006138   0.5777054   0.6067911  )
       136        Mo     tau( 136) = (  -0.0000756   0.0000425   0.4811258  )
       137        Mo     tau( 137) = (   0.4999996   0.7216889  -0.4825273  )
       138        Mo     tau( 138) = (   0.3749875   0.7938333  -0.0000404  )
       139        S      tau( 139) = (   0.3749996   0.6495201  -0.6064556  )
       140        S      tau( 140) = (   0.4999549   0.7216781  -0.1241825  )
       141        S      tau( 141) = (   0.3749453   0.7934797   0.3572516  )
       142        S      tau( 142) = (   0.3749996   0.6495200  -0.3584711  )
       143        S      tau( 143) = (   0.5000375   0.7216816   0.1241203  )
       144        S      tau( 144) = (   0.3755618   0.7955149   0.6061729  )
       145        Pt     tau( 145) = (   0.2499972   0.4330095   0.7045710  )
       146        Pd     tau( 146) = (   0.2500134  -0.0001585   0.7257048  )

     DFT-D3 Dispersion Correction (3-body terms):
       Reference C6 values for interpolation:

[...]
   -40.5157 -40.4934 -40.4929 -40.4926 -40.4867 -40.4843 -40.4803 -40.4786
   -40.4613 -40.4583 -40.4505 -40.4362 -40.4279 -40.4132 -40.3934 -19.8393
   -19.8245 -19.7768 -19.7263 -19.6311 -19.6045 -19.3949 -19.3935 -19.3282
   -19.3238 -19.2013 -19.1994 -18.7949 -18.7689 -18.7428 -18.6907 -18.6837
   -18.6798 -18.6721 -18.6698 -18.6482 -18.6131 -18.5867 -18.5617 -18.5494
   -18.5447 -18.5365 -18.5204 -18.4915 -18.4821 -18.4341 -18.4309 -18.4145
   -18.3974 -18.3832 -18.3580 -18.3489 -18.3372 -18.3116 -18.2651 -18.2426
   -18.2259 -18.2165 -18.1819 -18.1730 -18.1595 -18.1351 -18.1067 -18.0936
   -18.0779 -18.0661 -18.0660 -18.0658 -18.0657 -18.0527 -18.0517 -18.0303
   -18.0136 -17.9953 -17.9913 -17.9882 -17.9842 -17.9798 -17.9736 -17.9537
   -17.9484 -17.9309 -17.9299 -17.9252 -17.9134 -17.8882 -17.8845 -17.8790
   -17.8762 -17.8686 -17.8626 -17.8250 -17.8205 -17.8106 -17.8043 -17.8026
   -17.8026 -17.7646 -17.7559 -17.7527 -17.7427 -17.7426 -17.7322 -17.7265
   -17.7258 -17.7223 -17.7096 -17.6841 -17.6825 -17.6316 -17.6190 -11.7876
   -11.6277 -11.6119 -11.5588 -11.5128 -11.4237 -11.4148 -11.4102 -11.4096
   -11.3985 -11.3901 -11.3823 -11.3478 -11.3327 -11.3213 -11.3142 -11.3090
   -11.2960 -11.2854 -11.2643 -11.2603 -11.2433 -11.2295 -11.2209 -11.2062
   -11.1954 -11.1954 -11.1790 -11.1498 -11.1496 -11.1030 -11.0948 -11.0911
   -11.0903 -11.0172 -11.0083 -10.9456 -10.9397 -10.9192 -10.9134 -10.9086
   -10.8661 -10.8630 -10.8559 -10.8515 -10.8398 -10.8267 -10.8152 -10.8033
   -10.7957 -10.7731 -10.7714 -10.7701 -10.7680 -10.7657 -10.7616 -10.7588
   -10.7480 -10.7388 -10.7139 -10.7009 -10.6997 -10.6920 -10.6734 -10.5675
   -10.5439 -10.5227 -10.4950 -10.4424 -10.4253 -10.3741 -10.3026 -10.2601
   -10.2314 -10.1848 -10.1375 -10.0745 -10.0638 -10.0521 -10.0506 -10.0049
    -9.9841  -9.9565  -9.9516  -9.9130  -9.9036  -9.8826  -9.8781  -9.8745
    -9.8689  -9.8547  -9.8503  -9.8424  -9.8354  -9.8256  -9.8202  -9.7716
    -9.7487  -9.7419  -9.7173  -9.7034  -9.7013  -9.6788  -9.6746  -9.6551
    -9.6509  -9.6405  -9.6390  -9.6309  -9.6066  -9.6027  -9.5964  -9.5796
    -9.5618  -9.5604  -9.5497  -9.5079  -9.5016  -9.4731  -9.4690  -9.4662
    -9.4557  -9.4105  -9.4085  -9.4018  -9.3786  -9.3079  -9.2706  -9.2574
    -9.2380  -9.1976  -9.1622  -9.1490  -9.1408  -9.1118  -9.0982  -9.0874
    -9.0868  -9.0817  -9.0777  -9.0505  -9.0401  -9.0192  -9.0079  -8.9871
    -8.9789  -8.9703  -8.9613  -8.9511  -8.9386  -8.9299  -8.9165  -8.9138
    -8.8976  -8.8944  -8.8863  -8.8845  -8.8733  -8.8704  -8.8621  -8.8559
    -8.8339  -8.8109  -8.8083  -8.8018  -8.7979  -8.7946  -8.7869  -8.7853
    -8.7780  -8.7774  -8.7683  -8.7657  -8.7471  -8.7320  -8.7262  -8.7075
[...]
    -3.6860  -3.6673  -3.6250  -3.5728  -3.5426  -3.5355  -3.5329  -3.5312
    -3.5181  -3.5179  -3.5172  -3.4959  -3.4929  -3.4695  -3.4476  -3.4428
    -3.4384  -3.4339  -3.4242  -3.4141  -3.4083  -3.4067  -3.3984  -3.3654
    -3.3592  -3.3516  -3.3260  -3.3013  -3.2986  -3.2859  -3.2842  -3.2796
    -3.2600  -3.2538  -3.2535  -3.2451  -3.2429  -3.2187  -3.2092  -3.2091
    -3.2077  -3.2070  -3.1995  -3.1733  -3.1697  -3.1655  -3.1592  -3.1522
    -3.1457  -3.1424  -3.1317  -3.1269  -3.1217  -3.0999  -3.0812  -3.0632
    -3.0543  -3.0425  -3.0338  -3.0061  -3.0035  -2.9808  -2.9689  -2.9647
    -2.9632  -2.9463  -2.9460  -2.9455  -2.9448  -2.9183  -2.9067  -2.8979
    -2.8963  -2.8834  -2.8777  -2.8657  -2.8588  -2.8557  -2.8540  -2.8509
    -2.8399  -2.8361  -2.8284  -2.8200  -2.8081  -2.7923  -2.7813  -2.7720
    -2.7668  -2.7539  -2.7392  -2.7377  -2.7290  -2.6900  -2.6781  -2.6513
    -2.6462  -2.5997  -2.5871  -2.5837  -2.5796  -2.5663  -2.5635  -2.5024
    -2.4967  -2.4545  -2.4471  -2.4365  -2.4353  -2.4160  -2.3823  -2.3521
    -2.2978  -2.2781  -2.2587

     the Fermi energy is    -4.5904 ev

!    total energy              =  -26031.79583024 Ry
     total all-electron energy =   -512284.365458 Ry
     estimated scf accuracy    <          8.0E-09 Ry
     smearing contrib. (-TS)   =      -0.00000001 Ry
     internal energy E=F+TS    =  -26031.79583023 Ry

     The total energy is F=E-TS. E is the sum of the following terms:
     one-electron contribution =  491269.62844285 Ry
     hartree contribution      = -245774.30824071 Ry
     xc contribution           =   -1534.67842411 Ry
     ewald contribution        = -253799.67351977 Ry
     DFT-D3 Dispersion         =      -4.02205081 Ry
     one-center paw contrib.   =  -16188.74203768 Ry

     convergence has been achieved in  10 iterations

     negative rho (up, down):  9.217E-04 0.000E+00

     Forces acting on atoms (cartesian axes, Ry/au):

     atom    1 type  1   force =     0.00025766   -0.00007415    0.00007692
     atom    2 type  1   force =     0.00000082    0.00000179    0.00189808
     atom    3 type  1   force =     0.00000256   -0.00000505    0.00000556
     atom    4 type  2   force =     0.00000056    0.00000125   -0.00327907
     atom    5 type  2   force =    -0.00000108    0.00000216    0.00000506
     atom    6 type  2   force =     0.00045821   -0.00030766    0.00034563
     atom    7 type  2   force =     0.00000103    0.00000073    0.00149625
     atom    8 type  2   force =     0.00001286   -0.00000588   -0.00000204
     atom    9 type  2   force =     0.00026506   -0.00013100   -0.00040574
     atom   10 type  1   force =    -0.00004309   -0.00001411    0.00015054
     atom   11 type  1   force =     0.00000069    0.00000219    0.00189697
     atom   12 type  1   force =    -0.00001230   -0.00000816   -0.00002694
     atom   13 type  2   force =     0.00000041    0.00000149   -0.00327899
     atom   14 type  2   force =    -0.00000442   -0.00001042   -0.00001289
     atom   15 type  2   force =     0.00017331    0.00014689   -0.00007930
     atom   16 type  2   force =     0.00000206    0.00000015    0.00151299
     atom   17 type  2   force =    -0.00001231    0.00000564   -0.00001226
     atom   18 type  2   force =    -0.00011020   -0.00006041   -0.00010684
     atom   19 type  1   force =     0.00012851    0.00022754    0.00006092
     atom   20 type  1   force =     0.00000077    0.00000043    0.00190021
     atom   21 type  1   force =     0.00000026    0.00000911   -0.00000393
     atom   22 type  2   force =     0.00000029    0.00000197   -0.00327879
     atom   23 type  2   force =    -0.00001514   -0.00000086   -0.00001347
     atom   24 type  2   force =    -0.00000016    0.00060790    0.00033235
     atom   25 type  2   force =    -0.00000015    0.00000251    0.00150070
     atom   26 type  2   force =    -0.00000913   -0.00001421   -0.00001313
     atom   27 type  2   force =    -0.00000007    0.00036270   -0.00043527
     atom   28 type  1   force =    -0.00000053   -0.00000779   -0.00048443
     atom   29 type  1   force =    -0.00000016    0.00000400    0.00190225
     atom   30 type  1   force =    -0.00001171   -0.00000398   -0.00001230
     atom   31 type  2   force =     0.00000044    0.00000159   -0.00327821
     atom   32 type  2   force =     0.00000018   -0.00000165    0.00000799
     atom   33 type  2   force =     0.00020032    0.00013167    0.00011316
     atom   34 type  2   force =    -0.00000691    0.00000267    0.00149594
     atom   35 type  2   force =    -0.00000036    0.00001951   -0.00000328
     atom   36 type  2   force =     0.00019687    0.00010047    0.00006898
     atom   37 type  1   force =    -0.00025747   -0.00007538    0.00007694
     atom   38 type  1   force =    -0.00000138    0.00000179    0.00189808
     atom   39 type  1   force =     0.00000066    0.00001220   -0.00000516
     atom   40 type  2   force =     0.00000022    0.00000131   -0.00327864
     atom   41 type  2   force =     0.00000084    0.00000202    0.00000510
     atom   42 type  2   force =    -0.00000073   -0.00035838    0.00008934
     atom   43 type  2   force =    -0.00000023    0.00000922    0.00149466
     atom   44 type  2   force =    -0.00001321   -0.00000545   -0.00000169
     atom   45 type  2   force =     0.00000019   -0.00014097    0.00004873
     atom   46 type  1   force =     0.00000105    0.00002787   -0.00021010
     atom   47 type  1   force =    -0.00000027    0.00000120    0.00189409
     atom   48 type  1   force =    -0.00002240    0.00002411   -0.00000159
     atom   49 type  2   force =     0.00000024    0.00000134   -0.00327876
     atom   50 type  2   force =     0.00000035    0.00003254   -0.00001053
     atom   51 type  2   force =    -0.00012776   -0.00008860    0.00016136
     atom   52 type  2   force =     0.00000391    0.00000827    0.00149263
     atom   53 type  2   force =     0.00000030    0.00009281   -0.00005686
     atom   54 type  2   force =     0.00018295   -0.00008874   -0.00004776
     atom   55 type  1   force =     0.00000544   -0.00003251   -0.00017430
     atom   56 type  1   force =    -0.00000131   -0.00000023    0.00189618
     atom   57 type  1   force =     0.00000591   -0.00002143   -0.00000617
     atom   58 type  2   force =    -0.00000010    0.00000144   -0.00327955
     atom   59 type  2   force =     0.00004947    0.00003346    0.00003198
     atom   60 type  2   force =    -0.00009709   -0.00009154    0.00009930
[...]
     atom  132 type  2   force =     0.00009654   -0.00009174    0.00009859
     atom  133 type  2   force =    -0.00000341   -0.00000407    0.00148555
     atom  134 type  2   force =     0.00000873   -0.00001425   -0.00001247
     atom  135 type  2   force =    -0.00006181    0.00016783   -0.00001890
     atom  136 type  1   force =     0.00014257   -0.00019169    0.00009437
     atom  137 type  1   force =    -0.00000061    0.00000227    0.00189899
     atom  138 type  1   force =    -0.00003496    0.00000884   -0.00000758
     atom  139 type  2   force =     0.00000038    0.00000161   -0.00327872
     atom  140 type  2   force =    -0.00002797   -0.00001408   -0.00000709
     atom  141 type  2   force =    -0.00000928    0.00011500    0.00013224
     atom  142 type  2   force =    -0.00000620   -0.00000155    0.00150556
     atom  143 type  2   force =    -0.00006981   -0.00004075   -0.00005674
     atom  144 type  2   force =     0.00014362   -0.00015545   -0.00005013
     atom  145 type  3   force =    -0.00000081    0.00020887   -0.00019037
     atom  146 type  4   force =     0.00000216    0.00006905   -0.00070369

     Total force =     0.002297     Total SCF correction =     0.000654
     SCF correction compared to forces is large: reduce conv_thr to get better values
     Energy error            =      1.3E-05 Ry
     Gradient error          =      7.0E-04 Ry/Bohr

     bfgs converged in  16 scf cycles and  15 bfgs steps
     (criteria: energy <  1.0E-04 Ry, force <  1.0E-03 Ry/Bohr)

     End of BFGS Geometry Optimization

     Final energy             =  -26031.7958302448 Ry

     File ./outdir/pwscf.bfgs deleted, as requested
Begin final coordinates

ATOMIC_POSITIONS (angstrom)
Mo               1.5593546623        2.7276501104        6.0947869091
Mo               1.5769197498        0.9104407117       -6.0872367793    0   0   0
Mo               0.0002871676        1.8210561554       -0.0003640410
S                0.0000044503        0.0000077495       -7.6506323570    0   0   0
S                1.5767472562        0.9110200487       -1.5665808589
S                0.0021046015        1.8232826234        4.5033173145
S                0.0000053241        0.0000068460       -4.5222282367    0   0   0
S                1.5773846106        0.9100551105        1.5664361763
S               -0.0219806891        1.8080354911        7.6456534183
Mo              -0.0180616180        5.4673935715        6.0790833469
Mo               0.0000011799        3.6417399547       -6.0872367793    0   0   0
Mo              -1.5764886446        4.5523547483       -0.0009136124
S               -1.5769141197        2.7313069925       -7.6506323570    0   0   0
S                0.0005697305        3.6418429076       -1.5658221355
S               -1.5753473073        4.5524481840        4.4973853534
S               -1.5769132459        2.7313060890       -4.5222282367    0   0   0
S                0.0008384353        3.6423432617        1.5669804197
S               -1.5979538569        4.5486076902        7.6387878797
Mo              -1.5725537590        8.1816209085        6.0833948313
Mo              -1.5769173901        6.3730391977       -6.0872367793    0   0   0
Mo              -3.1538556029        7.2835304028       -0.0021327045
S               -3.1538326896        5.4626062355       -7.6506323570    0   0   0
S               -1.5763441360        6.3729126863       -1.5667475966
S               -3.1538488560        7.2871245469        4.5062412647
S               -3.1538318159        5.4626053320       -4.5222282367    0   0   0
S               -1.5773373765        6.3735427712        1.5654660882
S               -3.1538452147        7.2739484389        7.6429931181
Mo               3.1538245153       -0.0003263011        6.1425961084
Mo              -3.1538359601        9.1043384407       -6.0872367793    0   0   0
Mo              -4.7304692419       10.0150952304       -0.0017138828
S               -4.7307512596        8.1939054785       -7.6506323570    0   0   0
S               -3.1538593721        9.1045273757       -1.5675304940
S               -4.7069355930       10.0259600668        4.5517055964
S               -4.7307503859        8.1939045750       -4.5222282367    0   0   0
S               -3.1538576836        9.1043076856        1.5650945266
S               -4.8269642025        9.9619687568        7.6954501035
Mo               4.7482803076        2.7276523774        6.0947855216
Mo               4.7307503218        0.9104407117       -6.0872367793    0   0   0
Mo               3.1538116145        1.8207509885       -0.0007336467
S                3.1538350223        0.0000077495       -7.6506323570    0   0   0
S                4.7308803230        0.9110202670       -1.5665799791
S                3.1538198710        1.8020629682        4.5622333500
S                3.1538358961        0.0000068460       -4.5222282367    0   0   0
S                4.7302416042        0.9100523591        1.5664343435
S                3.1538194544        1.9305086729        7.7053661559
Mo               3.1538120325        5.4603778394        6.1348344290
Mo               3.1538317519        3.6417399547       -6.0872367793    0   0   0
Mo               1.5774196178        4.5520814421       -0.0000560245
S                1.5769164523        2.7313069925       -7.6506323570    0   0   0
S                3.1538081341        3.6416883707       -1.5657602585
S                1.6001841259        4.5638535558        4.5571780069
S                1.5769173261        2.7313060890       -4.5222282367    0   0   0
S                3.1538084469        3.6403986366        1.5682988908
S                1.4318153333        4.4900827968        7.7271631333
Mo               1.5666607713        8.2059426063        6.0834270274
Mo               1.5769131819        6.3730391977       -6.0872367793    0   0   0
Mo              -0.0000389843        7.2837114856       -0.0006420750
S               -0.0000021176        5.4626062355       -7.6506323570    0   0   0
S                1.5767491091        6.3727095431       -1.5661004318
S                0.0004033916        7.2853710501        4.5085828233
[...]
S                6.3072241245        7.2853757771        4.5085895063
S                6.3076599001        5.4626053320       -4.5222282367    0   0   0
S                7.8849510785        6.3735425755        1.5654645291
S                6.3050246903        7.2756324331        7.6499168245
Mo              -0.0161566843        0.0019846943        6.0731978230
Mo               6.3076557559        9.1043384407       -6.0872367793    0   0   0
Mo               4.7310124473       10.0145311756        0.0001903698
S                4.7307404564        8.1939054785       -7.6506323570    0   0   0
S                6.3073035957        9.1045278195       -1.5661234504
S                4.7327511765       10.0095189337        4.4966046713
S                4.7307413301        8.1939045750       -4.5222282367    0   0   0
S                6.3096312538        9.1049069910        1.5669023375
S                4.7203190973       10.0319922101        7.6425106504
Pt               3.1538265783        5.4440862724        8.8810334546
Pd               3.1538216951        0.0094803475        9.0163969174
End final coordinates

     Writing all to output data dir ./outdir/pwscf.save/ :
     XML data file, charge density, pseudopotentials, collected wavefunctions

     General routines

     Parallel routines

   This run was terminated on:  17:22:23   9Mar2024

   JOB DONE.