     Program PWSCF v.7.3 starts on 12Mar2024 at 15: 4: 7

     Waiting for input...
     Reading input from standard input
Warning: card &CELL ignored
Warning: card / ignored

     Current dimensions of program PWSCF are:
     Max number of different atomic species (ntypx) = 10
     Max number of k-points (npk) =  40000
     Max angular momentum in pseudopotentials (lmaxx) =  4
     file Mo.pbe-spn-kjpaw_psl.1.0.0.UPF: wavefunction(s)  4S 4D renormalized
     file S.pbe-n-kjpaw_psl.1.0.0.UPF: wavefunction(s)  3S 3P renormalized
     file Pt.pbe-spfn-kjpaw_psl.1.0.0.UPF: wavefunction(s)  5P 4F renormalized
     file Pd.pbe-spn-kjpaw_psl.1.0.0.UPF: wavefunction(s)  4S 5S 4D renormalized

     R & G space division:  proc/nbgrp/npool/nimage =      36
     Subspace diagonalization in iterative solution of the eigenvalue problem:
     one sub-group per band group will be used

     Using Slab Decomposition

     bravais-lattice index     =            0
     lattice parameter (alat)  =      23.8199  a.u.
     unit-cell volume          =   33861.0370 (a.u.)^3
     number of atoms/cell      =          194
     number of atomic types    =            4
     number of electrons       =      1714.00
     number of Kohn-Sham states=         1028
     kinetic-energy cutoff     =      77.0000  Ry
     charge density cutoff     =     539.0000  Ry
     scf convergence threshold =      1.0E-06
     mixing beta               =       0.2000
     number of iterations used =            8  plain     mixing
     energy convergence thresh.=      1.0E-04
     force convergence thresh. =      1.0E-03
     Exchange-correlation= SLA  PW   PBX  PBC
                           (   1   4   3   4   0   0   0)
     nstep                     =         1000

     Effective Screening Medium Method
     Boundary Conditions: Vacuum-Slab-Vacuum
     total charge in unit cell        =   0.0000
     grid points for fit at edges     =        4

     celldm(1)=  23.819920  celldm(2)=   0.000000  celldm(3)=   0.000000
     celldm(4)=   0.000000  celldm(5)=   0.000000  celldm(6)=   0.000000

     crystal axes: (cart. coord. in units of alat)
               a(1) = (   1.000000   0.000000   0.000000 )
               a(2) = (  -0.499999   0.866026   0.000000 )
               a(3) = (   0.000000   0.000000   2.893000 )

     reciprocal axes: (cart. coord. in units 2 pi/alat)
               b(1) = (  1.000000  0.577349  0.000000 )
               b(2) = (  0.000000  1.154700  0.000000 )
               b(3) = (  0.000000  0.000000  0.345662 )

     PseudoPot. # 1 for Mo read from file:
     ./pseudo/Mo.pbe-spn-kjpaw_psl.1.0.0.UPF
     MD5 check sum: 317bf72632116215fd98f72de1686f13
     Pseudo is Projector augmented-wave + core cor, Zval = 14.0
     Generated using 'atomic' code by A. Dal Corso  v.7.2
     Shape of augmentation charge: PSQ
     Using radial grid of 1229 points,  6 beta functions with:
                l(1) =   0
                l(2) =   0
                l(3) =   1
                l(4) =   1
                l(5) =   2
                l(6) =   2
     Q(r) pseudized with 0 coefficients

     PseudoPot. # 2 for S  read from file:
     ./pseudo/S.pbe-n-kjpaw_psl.1.0.0.UPF
     MD5 check sum: 8b7b5302570d38d5e87fed6a1065abda
     Pseudo is Projector augmented-wave + core cor, Zval =  6.0
     Generated using 'atomic' code by A. Dal Corso  v.7.2
     Shape of augmentation charge: PSQ
     Using radial grid of 1151 points,  6 beta functions with:
                l(1) =   0
                l(2) =   0
                l(3) =   1
                l(4) =   1
                l(5) =   2
                l(6) =   2
     Q(r) pseudized with 0 coefficients

     PseudoPot. # 3 for Pt read from file:
     ./pseudo/Pt.pbe-spfn-kjpaw_psl.1.0.0.UPF
     MD5 check sum: 620096ebf4e6ebacc94de60fd67efcb5
     Pseudo is Projector augmented-wave + core cor, Zval = 32.0
     Generated using 'atomic' code by A. Dal Corso  v.7.2
     Shape of augmentation charge: PSQ
     Using radial grid of 1277 points,  8 beta functions with:
                l(1) =   0
                l(2) =   0
                l(3) =   1
                l(4) =   1
                l(5) =   2
                l(6) =   2
                l(7) =   3
                l(8) =   3
     Q(r) pseudized with 0 coefficients

     PseudoPot. # 4 for Pd read from file:
     ./pseudo/Pd.pbe-spn-kjpaw_psl.1.0.0.UPF
     MD5 check sum: a60571a671f2502b8a6a4569d20a6edb
     Pseudo is Projector augmented-wave + core cor, Zval = 18.0
     Generated using 'atomic' code by A. Dal Corso  v.7.2
     Shape of augmentation charge: PSQ
     Using radial grid of 1235 points,  6 beta functions with:
                l(1) =   0
                l(2) =   0
                l(3) =   1
                l(4) =   1
                l(5) =   2
                l(6) =   2
     Q(r) pseudized with 0 coefficients

     atomic species   valence    mass     pseudopotential
     Mo               14.00    95.95000     Mo( 1.00)
     S                 6.00    32.06000     S ( 1.00)
     Pt               32.00   195.08400     Pt( 1.00)
     Pd               18.00   106.42000     Pd( 1.00)

     No symmetry found

   Cartesian axes

     site n.     atom                  positions (alat units)
         1        Mo     tau(   1) = (   0.0000010   0.1443372  -0.7272732  )
         2        Mo     tau(   2) = (   0.1249995   0.0721706  -0.2424038  )
         3        S      tau(   3) = (   0.0000015   0.1443386  -0.3667807  )
         4        S      tau(   4) = (   0.1250010   0.0721682  -0.6030489  )
         5        S      tau(   5) = (   0.1250010   0.0721683  -0.8514963  )
         6        S      tau(   6) = (   0.0000015   0.1443389  -0.1180260  )
         7        Mo     tau(   7) = (   0.0000014   0.1443616   0.2424356  )
         8        Mo     tau(   8) = (   0.1250042   0.0720311   0.7263989  )
         9        S      tau(   9) = (   0.0000639   0.1447004   0.6020022  )
        10        S      tau(  10) = (   0.1250030   0.0721650   0.3667578  )
        11        S      tau(  11) = (   0.1250031   0.0721991   0.1180453  )
        12        S      tau(  12) = (  -0.0005532   0.1426765   0.8513101  )
        13        Mo     tau(  13) = (  -0.1249989   0.3608437  -0.7272732  )
        14        Mo     tau(  14) = (   0.0000030   0.2886752  -0.2424042  )
        15        S      tau(  15) = (  -0.1249977   0.3608450  -0.3667802  )
        16        S      tau(  16) = (   0.0000012   0.2886747  -0.6030489  )
        17        S      tau(  17) = (   0.0000012   0.2886748  -0.8514963  )
        18        S      tau(  18) = (  -0.1249977   0.3608454  -0.1180274  )
        19        Mo     tau(  19) = (  -0.1249758   0.3608563   0.2424461  )
        20        Mo     tau(  20) = (  -0.0009250   0.2875651   0.7279418  )
        21        S      tau(  21) = (  -0.1248723   0.3609173   0.6030853  )
        22        S      tau(  22) = (   0.0000474   0.2887247   0.3668317  )
        23        S      tau(  23) = (   0.0000000   0.2886879   0.1180554  )
        24        S      tau(  24) = (  -0.1255989   0.3604976   0.8519229  )
        25        Mo     tau(  25) = (  -0.2499987   0.5773502  -0.7272732  )
        26        Mo     tau(  26) = (  -0.1249977   0.5051839  -0.2424055  )
        27        S      tau(  27) = (  -0.2499981   0.5773518  -0.3667809  )
        28        S      tau(  28) = (  -0.1249986   0.5051812  -0.6030489  )
        29        S      tau(  29) = (  -0.1249986   0.5051813  -0.8514963  )
        30        S      tau(  30) = (  -0.2499979   0.5773512  -0.1180266  )
        31        Mo     tau(  31) = (  -0.2499765   0.5773372   0.2424355  )
        32        Mo     tau(  32) = (  -0.1264232   0.5049348   0.7279418  )
        33        S      tau(  33) = (  -0.2496528   0.5772237   0.6020023  )
        34        S      tau(  34) = (  -0.1249318   0.5051954   0.3668318  )
        35        S      tau(  35) = (  -0.1249873   0.5051727   0.1180553  )
        36        S      tau(  36) = (  -0.2517142   0.5777014   0.8513102  )
        37        Mo     tau(  37) = (  -0.3749985   0.7938567  -0.7272732  )
        38        Mo     tau(  38) = (  -0.2500001   0.7216874  -0.2424031  )
        39        S      tau(  39) = (  -0.3749980   0.7938584  -0.3667800  )
        40        S      tau(  40) = (  -0.2499984   0.7216877  -0.6030489  )
        41        S      tau(  41) = (  -0.2499984   0.7216878  -0.8514963  )
        42        S      tau(  42) = (  -0.3749982   0.7938585  -0.1180264  )
        43        Mo     tau(  43) = (  -0.3749961   0.7938572   0.2423820  )
        44        Mo     tau(  44) = (  -0.2501160   0.7217599   0.7263989  )
        45        S      tau(  45) = (  -0.3749948   0.7938592   0.6019084  )
        46        S      tau(  46) = (  -0.2499995   0.7216903   0.3667578  )
        47        S      tau(  47) = (  -0.2499699   0.7216732   0.1180452  )
        48        S      tau(  48) = (  -0.3749951   0.7938590   0.8508262  )
        49        Mo     tau(  49) = (   0.2500010   0.1443372  -0.7272732  )
        50        Mo     tau(  50) = (   0.3750034   0.0721723  -0.2424032  )
        51        S      tau(  51) = (   0.2500017   0.1443391  -0.3667788  )
        52        S      tau(  52) = (   0.3750010   0.0721682  -0.6030489  )
        53        S      tau(  53) = (   0.3750010   0.0721683  -0.8514963  )
        54        S      tau(  54) = (   0.2500016   0.1443391  -0.1180271  )
        55        Mo     tau(  55) = (   0.2500050   0.1443618   0.2424356  )
        56        Mo     tau(  56) = (   0.3749291   0.0721273   0.7261578  )
        57        S      tau(  57) = (   0.2499446   0.1447002   0.6020022  )
        58        S      tau(  58) = (   0.3750312   0.0721852   0.3667808  )
        59        S      tau(  59) = (   0.3749943   0.0721639   0.1180502  )
        60        S      tau(  60) = (   0.2505615   0.1426764   0.8513103  )
[...]
       180        S      tau( 180) = (   0.5017240   0.5777016   0.8513099  )
       181        Mo     tau( 181) = (   0.3750016   0.7938567  -0.7272732  )
       182        Mo     tau( 182) = (   0.5000025   0.7216901  -0.2424039  )
       183        S      tau( 183) = (   0.3750019   0.7938578  -0.3667793  )
       184        S      tau( 184) = (   0.5000016   0.7216877  -0.6030489  )
       185        S      tau( 185) = (   0.5000016   0.7216878  -0.8514963  )
       186        S      tau( 186) = (   0.3750020   0.7938579  -0.1180272  )
       187        Mo     tau( 187) = (   0.3749825   0.7938468   0.2424356  )
       188        Mo     tau( 188) = (   0.5001261   0.7217601   0.7263985  )
       189        S      tau( 189) = (   0.3747228   0.7936274   0.6020018  )
       190        S      tau( 190) = (   0.5000073   0.7216903   0.3667579  )
       191        S      tau( 191) = (   0.4999777   0.7216732   0.1180450  )
       192        S      tau( 192) = (   0.3761670   0.7951734   0.8513099  )
       193        Pt     tau( 193) = (   0.1250041   0.5051825   0.9498857  )
       194        Pd     tau( 194) = (  -0.2501397   0.7217794   0.9698564  )

     DFT-D3 Dispersion Correction (3-body terms):
       Reference C6 values for interpolation:

[...]
   -40.6217 -40.6217 -40.6213 -40.6210 -40.6210 -40.6083 -40.6072 -40.6001
   -40.6001 -40.6000 -40.6000 -40.6000 -40.6000 -40.5999 -40.5999 -40.5991
   -40.5991 -40.5991 -40.5991 -40.5890 -40.5888 -40.5839 -40.5801 -40.5653
   -40.5653 -40.5653 -40.5653 -40.5653 -40.5653 -40.5652 -40.5652 -40.5643
   -40.5643 -40.5643 -40.5643 -40.5531 -40.5531 -40.5531 -40.5531 -40.5522
   -40.5522 -40.5515 -40.5480 -40.5439 -40.5407 -40.5338 -40.5338 -40.5338
   -40.5338 -40.5331 -40.5328 -40.5328 -40.5287 -40.5169 -40.5168 -40.5168
   -40.5167 -40.5166 -40.5158 -40.5158 -40.5116 -40.4922 -40.4861 -40.4861
   -40.4861 -40.4861 -40.4851 -40.4851 -40.4838 -40.4685 -40.4607 -19.8589
   -19.8359 -19.7878 -19.7788 -19.6880 -19.6815 -19.5840 -19.5814 -19.4063
   -19.4058 -19.3489 -19.3486 -19.2559 -19.2557 -19.1569 -19.1568 -18.8783
   -18.8349 -18.8102 -18.7245 -18.6834 -18.6587 -18.6517 -18.6505 -18.6499
   -18.6281 -18.6162 -18.6070 -18.5800 -18.5793 -18.5691 -18.5546 -18.5365
   -18.5360 -18.5031 -18.4857 -18.4849 -18.4807 -18.4691 -18.4585 -18.4523
   -18.4332 -18.4188 -18.4079 -18.3987 -18.3868 -18.3415 -18.3388 -18.3362
   -18.3288 -18.2990 -18.2823 -18.2627 -18.2605 -18.2564 -18.2076 -18.1904
   -18.1867 -18.1786 -18.1549 -18.1318 -18.1245 -18.1105 -18.1084 -18.0945
   -18.0688 -18.0541 -18.0385 -18.0357 -18.0325 -18.0281 -18.0248 -18.0240
   -18.0172 -18.0028 -17.9989 -17.9986 -17.9963 -17.9916 -17.9827 -17.9808
   -17.9783 -17.9755 -17.9720 -17.9406 -17.9374 -17.9366 -17.9343 -17.9320
   -17.9270 -17.9259 -17.9254 -17.9176 -17.9122 -17.8832 -17.8742 -17.8707
   -17.8653 -17.8627 -17.8601 -17.8235 -17.8234 -17.8186 -17.8111 -17.7965
   -17.7803 -17.7759 -17.7714 -17.7690 -17.7629 -17.7490 -17.7486 -17.7483
   -17.7475 -17.7472 -17.7470 -17.7353 -17.7332 -17.7168 -17.7123 -17.6921
   -17.6880 -17.6731 -17.6677 -17.6573 -17.6539 -17.6488 -17.6483 -11.8533
   -11.6614 -11.6478 -11.6152 -11.5471 -11.5362 -11.4702 -11.4641 -11.4360
   -11.4281 -11.4270 -11.4242 -11.4172 -11.4047 -11.3893 -11.3698 -11.3360
   -11.3184 -11.3125 -11.2981 -11.2837 -11.2633 -11.2626 -11.2510 -11.2446
   -11.2101 -11.2043 -11.1989 -11.1976 -11.1910 -11.1835 -11.1821 -11.1629
   -11.1403 -11.1342 -11.1282 -11.1221 -11.1157 -11.1141 -11.0988 -11.0967
   -11.0939 -11.0762 -11.0759 -11.0566 -11.0457 -11.0348 -11.0242 -10.9927
   -10.9861 -10.9755 -10.9515 -10.9069 -10.9011 -10.9010 -10.8662 -10.8643
   -10.8441 -10.8426 -10.8406 -10.8363 -10.8074 -10.7782 -10.7743 -10.7668
   -10.7598 -10.7496 -10.7490 -10.7435 -10.7409 -10.7404 -10.7396 -10.7358
   -10.7348 -10.7258 -10.7256 -10.7223 -10.7216 -10.7135 -10.7130 -10.7115
[...]
    -3.3045  -3.2812  -3.2795  -3.2779  -3.2758  -3.2686  -3.2673  -3.2643
    -3.2595  -3.2328  -3.2312  -3.2227  -3.2181  -3.2119  -3.2096  -3.2051
    -3.2027  -3.1979  -3.1941  -3.1811  -3.1780  -3.1651  -3.1647  -3.1647
    -3.1498  -3.1441  -3.1397  -3.1354  -3.1352  -3.1231  -3.1170  -3.1101
    -3.1084  -3.0962  -3.0946  -3.0905  -3.0894  -3.0893  -3.0654  -3.0555
    -3.0359  -3.0196  -3.0147  -2.9992  -2.9974  -2.9918  -2.9856  -2.9567
    -2.9552  -2.9512  -2.9504  -2.9485  -2.9480  -2.9408  -2.9392  -2.9374
    -2.9337  -2.9311  -2.9295  -2.9201  -2.9149  -2.9131  -2.9121  -2.9059
    -2.9042  -2.9010  -2.8977  -2.8864  -2.8862  -2.8757  -2.8744  -2.8709
    -2.8662  -2.8616  -2.8581  -2.8534  -2.8360  -2.8292  -2.8291  -2.8228
    -2.8171  -2.8161  -2.8024  -2.7977  -2.7891  -2.7298  -2.7243  -2.7214
    -2.7207  -2.6855  -2.6615  -2.6351  -2.6327  -2.5601  -2.5393  -2.5301
    -2.5278  -2.5044  -2.4918  -2.4886  -2.4739  -2.4630  -2.4581  -2.4531
    -2.4512  -2.4511  -2.4279  -2.4205  -2.3551  -2.3330  -2.3289  -2.3251
    -2.3194  -2.3180  -2.2978  -2.2930

     the Fermi energy is    -4.6405 ev

!    total energy              =  -33980.28484074 Ry
     total all-electron energy =   -667406.137847 Ry
     estimated scf accuracy    <          3.3E-09 Ry
     smearing contrib. (-TS)   =      -0.00000009 Ry
     internal energy E=F+TS    =  -33980.28484065 Ry

     The total energy is F=E-TS. E is the sum of the following terms:
     one-electron contribution = 1160999.40150808 Ry
     hartree contribution      = -580671.46570727 Ry
     xc contribution           =   -2010.78653010 Ry
     ewald contribution        = -590989.05955301 Ry
     DFT-D3 Dispersion         =      -5.43250738 Ry
     one-center paw contrib.   =  -21302.94205098 Ry

     convergence has been achieved in  12 iterations

     negative rho (up, down):  8.981E-04 0.000E+00

     Forces acting on atoms (cartesian axes, Ry/au):

     atom    1 type  1   force =     0.00000032    0.00000029    0.00068815
     atom    2 type  1   force =     0.00002544   -0.00000424   -0.00000373
     atom    3 type  2   force =     0.00000068    0.00000093    0.00000152
     atom    4 type  2   force =    -0.00000107    0.00000082    0.00161530
     atom    5 type  2   force =    -0.00000138    0.00000038   -0.00235932
     atom    6 type  2   force =     0.00000200   -0.00000049   -0.00000534
     atom    7 type  1   force =    -0.00001436    0.00000053    0.00002211
     atom    8 type  1   force =    -0.00007798   -0.00044597    0.00025468
     atom    9 type  2   force =     0.00012742    0.00012477    0.00015561
     atom   10 type  2   force =     0.00001019    0.00004056   -0.00004163
     atom   11 type  2   force =    -0.00001320   -0.00001618   -0.00001963
     atom   12 type  2   force =     0.00001811   -0.00018618   -0.00003180
     atom   13 type  1   force =     0.00000043    0.00000023    0.00068845
     atom   14 type  1   force =    -0.00001260    0.00001236    0.00000167
     atom   15 type  2   force =     0.00000315    0.00000079    0.00000393
     atom   16 type  2   force =    -0.00000092    0.00000091    0.00161516
     atom   17 type  2   force =    -0.00000124    0.00000040   -0.00235932
     atom   18 type  2   force =     0.00000335    0.00000695   -0.00001208
     atom   19 type  1   force =    -0.00000614   -0.00001648    0.00001953
     atom   20 type  1   force =     0.00004951   -0.00000624    0.00008064
     atom   21 type  2   force =     0.00024561    0.00007083    0.00016861
     atom   22 type  2   force =    -0.00001676   -0.00001385    0.00003513
     atom   23 type  2   force =    -0.00000469    0.00000087    0.00002741
     atom   24 type  2   force =    -0.00017987    0.00015866   -0.00013566
     atom   25 type  1   force =     0.00000057    0.00000028    0.00068849
     atom   26 type  1   force =     0.00000099   -0.00000796    0.00000877
     atom   27 type  2   force =     0.00000022    0.00000251    0.00000187
     atom   28 type  2   force =    -0.00000096    0.00000093    0.00161533
     atom   29 type  2   force =    -0.00000118    0.00000037   -0.00235936
     atom   30 type  2   force =     0.00000119   -0.00000625   -0.00000193
     atom   31 type  1   force =    -0.00000071    0.00000126    0.00001472
     atom   32 type  1   force =    -0.00045796    0.00028661    0.00030834
     atom   33 type  2   force =    -0.00005033    0.00011436    0.00041339
     atom   34 type  2   force =     0.00005149   -0.00000449   -0.00003211
     atom   35 type  2   force =    -0.00002608   -0.00000465   -0.00001711
     atom   36 type  2   force =    -0.00004615    0.00072861    0.00047404
     atom   37 type  1   force =     0.00000124   -0.00000026    0.00068805
     atom   38 type  1   force =     0.00002657    0.00002256   -0.00000388
     atom   39 type  2   force =    -0.00000075    0.00000175    0.00000608
     atom   40 type  2   force =    -0.00000099    0.00000105    0.00161535
     atom   41 type  2   force =    -0.00000126    0.00000040   -0.00235940
     atom   42 type  2   force =    -0.00000528    0.00000349    0.00000467
     atom   43 type  1   force =    -0.00000064   -0.00000011    0.00001362
     atom   44 type  1   force =    -0.00004722    0.00002729   -0.00063569
     atom   45 type  2   force =    -0.00006191    0.00003522    0.00044011
     atom   46 type  2   force =    -0.00000081    0.00000094    0.00008974
     atom   47 type  2   force =     0.00000453   -0.00000216    0.00003417
     atom   48 type  2   force =     0.00068161   -0.00039333    0.00051230
     atom   49 type  1   force =     0.00000037    0.00000033    0.00068852
     atom   50 type  1   force =    -0.00002530   -0.00002431   -0.00000970
     atom   51 type  2   force =    -0.00000091    0.00000272    0.00000561
     atom   52 type  2   force =    -0.00000119    0.00000076    0.00161556
     atom   53 type  2   force =    -0.00000134    0.00000040   -0.00235932
     atom   54 type  2   force =    -0.00000120   -0.00000070   -0.00001239
     atom   55 type  1   force =    -0.00000226    0.00001630   -0.00002248
     atom   56 type  1   force =     0.00007217   -0.00045402    0.00018117
     atom   57 type  2   force =     0.00000021   -0.00035155    0.00038132
     atom   58 type  2   force =    -0.00000604    0.00004975   -0.00003764
     atom   59 type  2   force =     0.00000710   -0.00001827   -0.00001947
     atom   60 type  2   force =     0.00002039   -0.00034527   -0.00058552
[...]
     atom  180 type  2   force =     0.00030943    0.00015507   -0.00058578
     atom  181 type  1   force =     0.00000057   -0.00000019    0.00068818
     atom  182 type  1   force =    -0.00001232   -0.00001118   -0.00000388
     atom  183 type  2   force =    -0.00000303   -0.00000076    0.00000491
     atom  184 type  2   force =    -0.00000103    0.00000096    0.00161539
     atom  185 type  2   force =    -0.00000128    0.00000039   -0.00235935
     atom  186 type  2   force =     0.00000005   -0.00000164   -0.00000782
     atom  187 type  1   force =    -0.00000780    0.00001181    0.00002200
     atom  188 type  1   force =     0.00034670    0.00029061    0.00025455
     atom  189 type  2   force =    -0.00004464   -0.00017260    0.00015564
     atom  190 type  2   force =    -0.00002958   -0.00002897   -0.00004182
     atom  191 type  2   force =     0.00000759    0.00002024   -0.00001949
     atom  192 type  2   force =     0.00017042    0.00007765   -0.00003235
     atom  193 type  3   force =     0.00028279   -0.00016264   -0.00035021
     atom  194 type  4   force =     0.00019368   -0.00011254   -0.00066617

     Total force =     0.003163     Total SCF correction =     0.000306
     Energy error            =      3.1E-05 Ry
     Gradient error          =      7.3E-04 Ry/Bohr

     bfgs converged in  15 scf cycles and  14 bfgs steps
     (criteria: energy <  1.0E-04 Ry, force <  1.0E-03 Ry/Bohr)

     End of BFGS Geometry Optimization

     Final energy             =  -33980.2848407406 Ry

     File ./outdir/pwscf.bfgs deleted, as requested
Begin final coordinates

ATOMIC_POSITIONS (angstrom)
Mo               0.0000119917        1.8193638619       -9.1672481230    0   0   0
Mo               1.5756136568        0.9097075315       -3.0554901653    0   0   0
S                0.0000188998        1.8193822938       -4.6232556019    0   0   0
S                1.5756321638        0.9096773839       -7.6014065489    0   0   0
S                1.5756326175        0.9096785128      -10.7330757790    0   0   0
S                0.0000189190        1.8193860094       -1.4877129945    0   0   0
Mo               0.0002979927        1.8195475562        3.0562463441
Mo               1.5702682951        0.9213180083        9.1596763553
S                0.0025022451        1.8218844223        7.5790466855
S                1.5756692321        0.9089236522        4.6240244239
S                1.5759026742        0.9099626022        1.4884884036
S               -0.0169448965        1.8103398618       10.7272317089
Mo              -1.5756053507        4.5484193819       -9.1672481230    0   0   0
Mo               0.0000378379        3.6387394919       -3.0554952701    0   0   0
S               -1.5755913433        4.5484363582       -4.6232494962    0   0   0
S                0.0000148214        3.6387329039       -7.6014065489    0   0   0
S                0.0000152751        3.6387340328      -10.7330757790    0   0   0
S               -1.5755906502        4.5484413613       -1.4877305502    0   0   0
Mo              -1.5752755747        4.5488142388        3.0562814216
Mo              -0.0122212622        3.6244944995        9.1652652937
S               -1.5743026360        4.5499190940        7.5907405034
S                0.0009054938        3.6395607102        4.6238466608
S               -0.0000335045        3.6387776189        1.4882014326
S               -1.5776137787        4.5279859512       10.7345138711
Mo              -3.1512226931        7.2774749019       -9.1672481230    0   0   0
Mo              -1.5755910988        6.3678216792       -3.0555115988    0   0   0
S               -3.1512162438        7.2774954350       -4.6232578178    0   0   0
S               -1.5756025210        6.3677884239       -7.6014065489    0   0   0
S               -1.5756020673        6.3677895528      -10.7330757790    0   0   0
S               -3.1512127704        7.2774877076       -1.4877200710    0   0   0
Mo              -3.1509432490        7.2775867961        3.0559759499
Mo              -1.5860310022        6.3500513882        9.1784090425
S               -3.1473547381        7.2975895436        7.6277769682
S               -1.5754951955        6.3682763826        4.6247872880
S               -1.5753188168        6.3679041224        1.4884852354
S               -3.1745887269        7.1659956769       10.7809162176
Mo              -4.7268400355       10.0065304219       -9.1672481230    0   0   0
Mo              -3.1512405618        9.0968403586       -3.0554816746    0   0   0
S               -4.7268341792       10.0065523623       -4.6232463762    0   0   0
S               -3.1512198634        9.0968439439       -7.6014065489    0   0   0
S               -3.1512194097        9.0968450728      -10.7330757790    0   0   0
S               -4.7268370797       10.0065537885       -1.4877176751    0   0   0
Mo              -4.7265619656       10.0063965380        3.0555299259
Mo              -3.1499660290        9.0961763595        9.2150190391
S               -4.7050452910        9.9940019227        7.6271978079
S               -3.1511041228        9.0968030905        4.6232973219
S               -3.1509814689        9.0967326907        1.4878019384
S               -4.8179071093       10.0591624449       10.7732098106
Mo               3.1512517547        1.8193638619       -9.1672481230    0   0   0
Mo               4.7269020221        0.9097289540       -3.0554823951    0   0   0
S                3.1512612351        1.8193882564       -4.6232320683    0   0   0
S                4.7268719268        0.9096773839       -7.6014065489    0   0   0
S                4.7268723805        0.9096785128      -10.7330757790    0   0   0
S                3.1512592485        1.8193890201       -1.4877261251    0   0   0
Mo               3.1512843020        1.8193391079        3.0567608298
Mo               4.7320634344        0.9243547118        9.1560303771
S                3.1499328742        1.8258243396        7.5855444266
S                4.7271286580        0.9090244859        4.6242315723
S                4.7266330679        0.9097206285        1.4885699026
S                3.1579400460        1.8056576547       10.7310949682
[...]
S                6.3177550595        7.2786158837       10.7310975520
Mo               4.7268792535       10.0065304219       -9.1672481230    0   0   0
Mo               6.3025111524        9.0968738021       -3.0554915260    0   0   0
S                4.7268840634       10.0065452125       -4.6232380477    0   0   0
S                6.3024994256        9.0968439439       -7.6014065489    0   0   0
S                6.3024998793        9.0968450728      -10.7330757790    0   0   0
S                4.7268847312       10.0065459141       -1.4877283294    0   0   0
Mo               4.7268873527       10.0062297456        3.0562455474
Mo               6.2897847768        9.0957487745        9.1596773720
S                4.7259895674       10.0031906318        7.5790473117
S                6.3031943700        9.0972282317        4.6240245316
S                6.3024118888        9.0965038990        1.4884881794
S                4.7262624430       10.0258048481       10.7272331122
Pt               1.5638068304        6.3746665665       11.9734297668
Pd              -3.1430463719        9.0921859015       12.0985807618
End final coordinates

     Writing all to output data dir ./outdir/pwscf.save/ :
     XML data file, charge density, pseudopotentials, collected wavefunctions

     General routines

     Parallel routines

   This run was terminated on:   0:23:19  14Mar2024

   JOB DONE.