     Program PWSCF v.7.2 starts on  8Nov2023 at  0:34:30

     Waiting for input...
     Reading input from standard input
Warning: card &CELL ignored
Warning: card / ignored

     Current dimensions of program PWSCF are:
     Max number of different atomic species (ntypx) = 10
     Max number of k-points (npk) =  40000
     Max angular momentum in pseudopotentials (lmaxx) =  4
     file Mo.pbe-spn-kjpaw_psl.1.0.0.UPF: wavefunction(s)  4S 4D renormalized
     file S.pbe-n-kjpaw_psl.1.0.0.UPF: wavefunction(s)  3S 3P renormalized
     file Au.pbe-spfn-kjpaw_psl.1.0.0.UPF: wavefunction(s)  5P 5D 4F renormalized

     R & G space division:  proc/nbgrp/npool/nimage =      36
     Subspace diagonalization in iterative solution of the eigenvalue problem:
     one sub-group per band group will be used

     Using Slab Decomposition

     bravais-lattice index     =            0
     lattice parameter (alat)  =      23.8199  a.u.
     unit-cell volume          =   33861.0370 (a.u.)^3
     number of atoms/cell      =          193
     number of atomic types    =            3
     number of electrons       =      1697.00
     number of Kohn-Sham states=         1019
     kinetic-energy cutoff     =      77.0000  Ry
     charge density cutoff     =     539.0000  Ry
     scf convergence threshold =      1.0E-06
     mixing beta               =       0.2000
     number of iterations used =            8  plain     mixing
     energy convergence thresh.=      1.0E-04
     force convergence thresh. =      1.0E-03
     Exchange-correlation= SLA  PW   PBX  PBC
                           (   1   4   3   4   0   0   0)
     nstep                     =         1000

     Effective Screening Medium Method
     Boundary Conditions: Vacuum-Slab-Vacuum
     total charge in unit cell        =   0.0000
     grid points for fit at edges     =        4

     celldm(1)=  23.819920  celldm(2)=   0.000000  celldm(3)=   0.000000
     celldm(4)=   0.000000  celldm(5)=   0.000000  celldm(6)=   0.000000

     crystal axes: (cart. coord. in units of alat)
               a(1) = (   1.000000   0.000000   0.000000 )
               a(2) = (  -0.499999   0.866026   0.000000 )
               a(3) = (   0.000000   0.000000   2.893000 )

     reciprocal axes: (cart. coord. in units 2 pi/alat)
               b(1) = (  1.000000  0.577349  0.000000 )
               b(2) = (  0.000000  1.154700  0.000000 )
               b(3) = (  0.000000  0.000000  0.345662 )

     PseudoPot. # 1 for Mo read from file:
     ./pseudo/Mo.pbe-spn-kjpaw_psl.1.0.0.UPF
     MD5 check sum: 317bf72632116215fd98f72de1686f13
     Pseudo is Projector augmented-wave + core cor, Zval = 14.0
     Generated using 'atomic' code by A. Dal Corso  v.7.2
     Shape of augmentation charge: PSQ
     Using radial grid of 1229 points,  6 beta functions with:
                l(1) =   0
                l(2) =   0
                l(3) =   1
                l(4) =   1
                l(5) =   2
                l(6) =   2
     Q(r) pseudized with 0 coefficients

     PseudoPot. # 2 for S  read from file:
     ./pseudo/S.pbe-n-kjpaw_psl.1.0.0.UPF
     MD5 check sum: 8b7b5302570d38d5e87fed6a1065abda
     Pseudo is Projector augmented-wave + core cor, Zval =  6.0
     Generated using 'atomic' code by A. Dal Corso  v.7.2
     Shape of augmentation charge: PSQ
     Using radial grid of 1151 points,  6 beta functions with:
                l(1) =   0
                l(2) =   0
                l(3) =   1
                l(4) =   1
                l(5) =   2
                l(6) =   2
     Q(r) pseudized with 0 coefficients

     PseudoPot. # 3 for Au read from file:
     ./pseudo/Au.pbe-spfn-kjpaw_psl.1.0.0.UPF
     MD5 check sum: c4676eff00405da86a99eb409921eac8
     Pseudo is Projector augmented-wave + core cor, Zval = 33.0
     Generated using 'atomic' code by A. Dal Corso  v.7.2
     Shape of augmentation charge: PSQ
     Using radial grid of 1279 points,  8 beta functions with:
                l(1) =   0
                l(2) =   0
                l(3) =   1
                l(4) =   1
                l(5) =   2
                l(6) =   2
                l(7) =   3
                l(8) =   3
     Q(r) pseudized with 0 coefficients

     atomic species   valence    mass     pseudopotential
        Mo            14.00    95.95000     Mo( 1.00)
        S              6.00    32.06000     S ( 1.00)
        Au            33.00   196.96657     Au( 1.00)

     No symmetry found

   Cartesian axes

     site n.     atom                  positions (alat units)
         1           Mo  tau(   1) = (   0.0000010   0.1443372  -0.7272732  )
         2           Mo  tau(   2) = (   0.1249995   0.0721706  -0.2424038  )
         3           S   tau(   3) = (   0.0000015   0.1443386  -0.3667807  )
         4           S   tau(   4) = (   0.1250010   0.0721682  -0.6030489  )
         5           S   tau(   5) = (   0.1250010   0.0721683  -0.8514963  )
         6           S   tau(   6) = (   0.0000015   0.1443389  -0.1180260  )
         7           Mo  tau(   7) = (   0.0000041   0.1443345   0.2424023  )
         8           Mo  tau(   8) = (   0.1250030   0.0721700   0.7272501  )
         9           S   tau(   9) = (   0.0000038   0.1443392   0.6028599  )
        10           S   tau(  10) = (   0.1250037   0.0721683   0.3667755  )
        11           S   tau(  11) = (   0.1250033   0.0721688   0.1180247  )
        12           S   tau(  12) = (   0.0000038   0.1443391   0.8517304  )
        13           Mo  tau(  13) = (  -0.1249989   0.3608437  -0.7272732  )
        14           Mo  tau(  14) = (   0.0000030   0.2886752  -0.2424042  )
        15           S   tau(  15) = (  -0.1249977   0.3608450  -0.3667802  )
        16           S   tau(  16) = (   0.0000012   0.2886747  -0.6030489  )
        17           S   tau(  17) = (   0.0000012   0.2886748  -0.8514963  )
        18           S   tau(  18) = (  -0.1249977   0.3608454  -0.1180274  )
        19           Mo  tau(  19) = (  -0.1249981   0.3608444   0.2424011  )
        20           Mo  tau(  20) = (   0.0000038   0.2886765   0.7272499  )
        21           S   tau(  21) = (  -0.1249961   0.3608457   0.6028596  )
        22           S   tau(  22) = (   0.0000037   0.2886752   0.3667739  )
        23           S   tau(  23) = (   0.0000035   0.2886747   0.1180263  )
        24           S   tau(  24) = (  -0.1249962   0.3608459   0.8517305  )
        25           Mo  tau(  25) = (  -0.2499987   0.5773502  -0.7272732  )
        26           Mo  tau(  26) = (  -0.1249977   0.5051839  -0.2424055  )
        27           S   tau(  27) = (  -0.2499981   0.5773518  -0.3667809  )
        28           S   tau(  28) = (  -0.1249986   0.5051812  -0.6030489  )
        29           S   tau(  29) = (  -0.1249986   0.5051813  -0.8514963  )
        30           S   tau(  30) = (  -0.2499979   0.5773512  -0.1180266  )
        31           Mo  tau(  31) = (  -0.2499983   0.5773503   0.2424020  )
        32           Mo  tau(  32) = (  -0.1249962   0.5051830   0.7272501  )
        33           S   tau(  33) = (  -0.2499958   0.5773522   0.6028593  )
        34           S   tau(  34) = (  -0.1249963   0.5051821   0.3667746  )
        35           S   tau(  35) = (  -0.1249968   0.5051820   0.1180254  )
        36           S   tau(  36) = (  -0.2499959   0.5773522   0.8517307  )
        37           Mo  tau(  37) = (  -0.3749985   0.7938567  -0.7272732  )
        38           Mo  tau(  38) = (  -0.2500001   0.7216874  -0.2424031  )
        39           S   tau(  39) = (  -0.3749980   0.7938584  -0.3667800  )
        40           S   tau(  40) = (  -0.2499984   0.7216877  -0.6030489  )
        41           S   tau(  41) = (  -0.2499984   0.7216878  -0.8514963  )
        42           S   tau(  42) = (  -0.3749982   0.7938585  -0.1180264  )
        43           Mo  tau(  43) = (  -0.3749976   0.7938584   0.2424002  )
        44           Mo  tau(  44) = (  -0.2499965   0.7216896   0.7272502  )
        45           S   tau(  45) = (  -0.3749954   0.7938586   0.6028596  )
        46           S   tau(  46) = (  -0.2499962   0.7216890   0.3667741  )
        47           S   tau(  47) = (  -0.2499961   0.7216884   0.1180258  )
        48           S   tau(  48) = (  -0.3749955   0.7938585   0.8517305  )
        49           Mo  tau(  49) = (   0.2500010   0.1443372  -0.7272732  )
        50           Mo  tau(  50) = (   0.3750034   0.0721723  -0.2424032  )
        51           S   tau(  51) = (   0.2500017   0.1443391  -0.3667788  )
        52           S   tau(  52) = (   0.3750010   0.0721682  -0.6030489  )
        53           S   tau(  53) = (   0.3750010   0.0721683  -0.8514963  )
        54           S   tau(  54) = (   0.2500016   0.1443391  -0.1180271  )
        55           Mo  tau(  55) = (   0.2500037   0.1443371   0.2424008  )
        56           Mo  tau(  56) = (   0.3750049   0.0721708   0.7272499  )
        57           S   tau(  57) = (   0.2500041   0.1443391   0.6028593  )
        58           S   tau(  58) = (   0.3750026   0.0721682   0.3667763  )
        59           S   tau(  59) = (   0.3750033   0.0721687   0.1180242  )
        60           S   tau(  60) = (   0.2500040   0.1443392   0.8517310  )
[...]
       179           S   tau( 179) = (   0.6250040   0.5051821   0.1180241  )
       180           S   tau( 180) = (   0.5000045   0.5773523   0.8517308  )
       181           Mo  tau( 181) = (   0.3750016   0.7938567  -0.7272732  )
       182           Mo  tau( 182) = (   0.5000025   0.7216901  -0.2424039  )
       183           S   tau( 183) = (   0.3750019   0.7938578  -0.3667793  )
       184           S   tau( 184) = (   0.5000016   0.7216877  -0.6030489  )
       185           S   tau( 185) = (   0.5000016   0.7216878  -0.8514963  )
       186           S   tau( 186) = (   0.3750020   0.7938579  -0.1180272  )
       187           Mo  tau( 187) = (   0.3750057   0.7938586   0.2424015  )
       188           Mo  tau( 188) = (   0.5000052   0.7216902   0.7272503  )
       189           S   tau( 189) = (   0.3750045   0.7938588   0.6028592  )
       190           S   tau( 190) = (   0.5000042   0.7216887   0.3667757  )
       191           S   tau( 191) = (   0.5000039   0.7216887   0.1180242  )
       192           S   tau( 192) = (   0.3750047   0.7938587   0.8517308  )
       193           Au  tau( 193) = (   0.2500074   0.4330042   1.0183294  )

     DFT-D3 Dispersion Correction (3-body terms):
       Reference C6 values for interpolation:

         atom   Coordination number   C6
         S          0.000           268.01
         S          0.995           261.99
         S          1.990           251.62
         Mo         0.000          1691.79
         Mo         1.942          1004.01
         Mo        11.056           674.22
         Au         0.000           684.71
         Au         0.985           634.31

       Values used:

         atom   Coordination number  R0_AB[au]  C6      C8
         Mo        10.208            3.547    674.22  77634.20
         Mo        10.221            3.547    674.22  77634.20
         S          3.858            3.128    251.62  12327.25
[...]
     atom   15 type  2   force =     0.00000000    0.00000000    0.00000000
     atom   16 type  2   force =     0.00000000    0.00000000    0.00000000
     atom   17 type  2   force =     0.00000000    0.00000000    0.00000000
     atom   18 type  2   force =     0.00000000    0.00000000    0.00000000
     atom   19 type  1   force =     0.00000331    0.00000162   -0.00008994
     atom   20 type  1   force =     0.00000386    0.00000488    0.00002363
     atom   21 type  2   force =     0.00000908   -0.00000065    0.00001142
     atom   22 type  2   force =     0.00000276    0.00000168   -0.00002009
     atom   23 type  2   force =    -0.00000020    0.00000000   -0.00002374
     atom   24 type  2   force =     0.00000227   -0.00000043    0.00003116
     atom   25 type  1   force =     0.00000000    0.00000000    0.00000000
     atom   26 type  1   force =     0.00000000    0.00000000    0.00000000
     atom   27 type  2   force =     0.00000000    0.00000000    0.00000000
     atom   28 type  2   force =     0.00000000    0.00000000    0.00000000
     atom   29 type  2   force =     0.00000000    0.00000000    0.00000000
     atom   30 type  2   force =     0.00000000    0.00000000    0.00000000
     atom   31 type  1   force =     0.00000187    0.00000152   -0.00009184
     atom   32 type  1   force =     0.00001038   -0.00000628    0.00003510
     atom   33 type  2   force =     0.00000099   -0.00000385    0.00000853
     atom   34 type  2   force =     0.00000202    0.00000116   -0.00002264
     atom   35 type  2   force =     0.00000026    0.00000087   -0.00002328
     atom   36 type  2   force =     0.00000095   -0.00000212    0.00003151
     atom   37 type  1   force =     0.00000000    0.00000000    0.00000000
     atom   38 type  1   force =     0.00000000    0.00000000    0.00000000
     atom   39 type  2   force =     0.00000000    0.00000000    0.00000000
     atom   40 type  2   force =     0.00000000    0.00000000    0.00000000
     atom   41 type  2   force =     0.00000000    0.00000000    0.00000000
     atom   42 type  2   force =     0.00000000    0.00000000    0.00000000
     atom   43 type  1   force =    -0.00000014    0.00000003   -0.00009276
     atom   44 type  1   force =     0.00000181   -0.00000192    0.00004148
     atom   45 type  2   force =    -0.00000356    0.00000129    0.00000786
     atom   46 type  2   force =     0.00000061    0.00000015   -0.00002682
     atom   47 type  2   force =     0.00000035    0.00000049   -0.00002321
     atom   48 type  2   force =    -0.00000182    0.00000039    0.00003223
     atom   49 type  1   force =     0.00000000    0.00000000    0.00000000
     atom   50 type  1   force =     0.00000000    0.00000000    0.00000000
     atom   51 type  2   force =     0.00000000    0.00000000    0.00000000
     atom   52 type  2   force =     0.00000000    0.00000000    0.00000000
     atom   53 type  2   force =     0.00000000    0.00000000    0.00000000
     atom   54 type  2   force =     0.00000000    0.00000000    0.00000000
     atom   55 type  1   force =    -0.00000137    0.00000368   -0.00008716
     atom   56 type  1   force =     0.00000450    0.00000949    0.00003695
     atom   57 type  2   force =    -0.00000030    0.00000134   -0.00000194
     atom   58 type  2   force =    -0.00000102   -0.00000061   -0.00002298
     atom   59 type  2   force =     0.00000010   -0.00000198   -0.00002348
     atom   60 type  2   force =     0.00000049    0.00000815    0.00002263
[...]
     atom  179 type  2   force =     0.00000112    0.00000111   -0.00002371
     atom  180 type  2   force =    -0.00000770   -0.00000422    0.00002133
     atom  181 type  1   force =     0.00000000    0.00000000    0.00000000
     atom  182 type  1   force =     0.00000000    0.00000000    0.00000000
     atom  183 type  2   force =     0.00000000    0.00000000    0.00000000
     atom  184 type  2   force =     0.00000000    0.00000000    0.00000000
     atom  185 type  2   force =     0.00000000    0.00000000    0.00000000
     atom  186 type  2   force =     0.00000000    0.00000000    0.00000000
     atom  187 type  1   force =    -0.00000146   -0.00000245   -0.00008987
     atom  188 type  1   force =    -0.00001321   -0.00000403    0.00003456
     atom  189 type  2   force =    -0.00000640   -0.00000722    0.00001151
     atom  190 type  2   force =    -0.00000087   -0.00000080   -0.00002282
     atom  191 type  2   force =     0.00000001    0.00000134   -0.00002313
     atom  192 type  2   force =    -0.00000306   -0.00000197    0.00003088
     atom  193 type  3   force =     0.00000407    0.00000283    0.00122722

     DFT-D3 dispersion contribution to forces:
     atom    1 type  1   force =     0.00000003    0.00000003    0.00255971
     atom    2 type  1   force =     0.00000009    0.00000004    0.00001224
     atom    3 type  2   force =     0.00000003    0.00000002   -0.00003334
     atom    4 type  2   force =    -0.00000002    0.00000000    0.00017147
     atom    5 type  2   force =    -0.00000000    0.00000001    0.00441498
     atom    6 type  2   force =     0.00000018    0.00000000    0.00009557
     atom    7 type  1   force =    -0.00000308    0.00000072   -0.00002812
     atom    8 type  1   force =     0.00005177    0.00015478   -0.00239799
     atom    9 type  2   force =    -0.00000612   -0.00000091   -0.00015145
     atom   10 type  2   force =    -0.00000324    0.00000112    0.00002288
     atom   11 type  2   force =     0.00000048   -0.00000004   -0.00009802
     atom   12 type  2   force =     0.00018353    0.00020902   -0.00429286
     atom   13 type  1   force =     0.00000004    0.00000001    0.00255971
     atom   14 type  1   force =     0.00000022    0.00000011    0.00001220
     atom   15 type  2   force =     0.00000005    0.00000002   -0.00003335
     atom   16 type  2   force =     0.00000001    0.00000001    0.00017150
     atom   17 type  2   force =    -0.00000001   -0.00000001    0.00441492
     atom   18 type  2   force =     0.00000012    0.00000014    0.00009557
     atom   19 type  1   force =    -0.00000094   -0.00000304   -0.00002812
     atom   20 type  1   force =     0.00027434    0.00015838   -0.00218714
     atom   21 type  2   force =    -0.00000386   -0.00000485   -0.00015145
     atom   22 type  2   force =    -0.00000307   -0.00000179    0.00002522
     atom   23 type  2   force =     0.00000059    0.00000034   -0.00009757
     atom   24 type  2   force =     0.00027277    0.00005442   -0.00429288
     atom   25 type  1   force =     0.00000000   -0.00000002    0.00255966
     atom   26 type  1   force =     0.00000012    0.00000009    0.00001220
     atom   27 type  2   force =     0.00000003   -0.00000000   -0.00003328
     atom   28 type  2   force =     0.00000000   -0.00000000    0.00017147
     atom   29 type  2   force =     0.00000001   -0.00000001    0.00441498
     atom   30 type  2   force =     0.00000001    0.00000008    0.00009551
     atom   31 type  1   force =    -0.00000004   -0.00000272   -0.00003344
     atom   32 type  1   force =     0.00015990   -0.00003257   -0.00239801
     atom   33 type  2   force =    -0.00000002   -0.00000278   -0.00016380
     atom   34 type  2   force =    -0.00000067   -0.00000335    0.00002288
     atom   35 type  2   force =     0.00000022    0.00000042   -0.00009800
     atom   36 type  2   force =    -0.00000001   -0.00001827   -0.00439513
     atom   37 type  1   force =    -0.00000002    0.00000001    0.00255966
     atom   38 type  1   force =     0.00000001    0.00000002    0.00001233
     atom   39 type  2   force =     0.00000000    0.00000002   -0.00003327
     atom   40 type  2   force =    -0.00000000   -0.00000001    0.00017146
     atom   41 type  2   force =    -0.00000000    0.00000000    0.00441505
     atom   42 type  2   force =     0.00000006   -0.00000002    0.00009551
     atom   43 type  1   force =    -0.00000237    0.00000133   -0.00003347
     atom   44 type  1   force =    -0.00000002   -0.00000001   -0.00251645
     atom   45 type  2   force =    -0.00000242    0.00000137   -0.00016380
     atom   46 type  2   force =     0.00000001   -0.00000001    0.00001927
     atom   47 type  2   force =    -0.00000002    0.00000002   -0.00009838
     atom   48 type  2   force =    -0.00001582    0.00000913   -0.00439512
     atom   49 type  1   force =    -0.00000000    0.00000006    0.00255968
     atom   50 type  1   force =    -0.00000008    0.00000002    0.00001226
     atom   51 type  2   force =    -0.00000002    0.00000001   -0.00003328
     atom   52 type  2   force =     0.00000001    0.00000000    0.00017148
     atom   53 type  2   force =     0.00000000    0.00000001    0.00441498
     atom   54 type  2   force =    -0.00000000    0.00000004    0.00009560
     atom   55 type  1   force =     0.00000005    0.00000165   -0.00003345
     atom   56 type  1   force =    -0.00005173    0.00015483   -0.00239800
     atom   57 type  2   force =     0.00000001    0.00003213   -0.00010443
     atom   58 type  2   force =     0.00000327    0.00000111    0.00002285
     atom   59 type  2   force =    -0.00000046   -0.00000002   -0.00009800
     atom   60 type  2   force =     0.00000001    0.00054615   -0.00411216
[...]
     atom  179 type  2   force =    -0.00000023    0.00000041   -0.00009799
     atom  180 type  2   force =    -0.00047297   -0.00027310   -0.00411221
     atom  181 type  1   force =    -0.00000001   -0.00000004    0.00255972
     atom  182 type  1   force =    -0.00000003   -0.00000009    0.00001225
     atom  183 type  2   force =    -0.00000003   -0.00000005   -0.00003333
     atom  184 type  2   force =    -0.00000001    0.00000001    0.00017149
     atom  185 type  2   force =    -0.00000001   -0.00000000    0.00441498
     atom  186 type  2   force =     0.00000004   -0.00000017    0.00009556
     atom  187 type  1   force =    -0.00000220    0.00000226   -0.00002813
     atom  188 type  1   force =    -0.00010820   -0.00012225   -0.00239802
     atom  189 type  2   force =    -0.00000229    0.00000573   -0.00015143
     atom  190 type  2   force =    -0.00000260    0.00000221    0.00002287
     atom  191 type  2   force =     0.00000026   -0.00000040   -0.00009801
     atom  192 type  2   force =    -0.00008925   -0.00026344   -0.00429292
     atom  193 type  3   force =     0.00000004   -0.00000002   -0.00636987

     Total force =     0.001754     Total SCF correction =     0.001300
     SCF correction compared to forces is large: reduce conv_thr to get better values
     Energy error            =      1.3E-05 Ry
     Gradient error          =      9.3E-04 Ry/Bohr

     bfgs converged in  27 scf cycles and  26 bfgs steps
     (criteria: energy <  1.0E-04 Ry, force <  1.0E-03 Ry/Bohr)

     End of BFGS Geometry Optimization

     Final energy             =  -33570.9405043853 Ry

     File ./outdir/pwscf.bfgs deleted, as requested
Begin final coordinates

ATOMIC_POSITIONS (angstrom)
Mo            0.0000119917        1.8193638619       -9.1672481230    0   0   0
Mo            1.5756136568        0.9097075315       -3.0554901653    0   0   0
S             0.0000188998        1.8193822938       -4.6232556019    0   0   0
S             1.5756321638        0.9096773839       -7.6014065489    0   0   0
S             1.5756326175        0.9096785128      -10.7330757790    0   0   0
S             0.0000189190        1.8193860094       -1.4877129945    0   0   0
Mo            0.0000716632        1.8193538034        3.0572130365
Mo            1.5751112125        0.9115069986        9.1823003118
S             0.0010985746        1.8192985356        7.6089689936
S             1.5759443466        0.9096303426        4.6248040873
S             1.5754877561        0.9097445808        1.4891162966
S            -0.0024785020        1.8194148823       10.7482052660
Mo           -1.5756053507        4.5484193819       -9.1672481230    0   0   0
Mo            0.0000378379        3.6387394919       -3.0554952701    0   0   0
S            -1.5755913433        4.5484363582       -4.6232494962    0   0   0
S             0.0000148214        3.6387329039       -7.6014065489    0   0   0
S             0.0000152751        3.6387340328      -10.7330757790    0   0   0
S            -1.5755906502        4.5484413613       -1.4877305502    0   0   0
Mo           -1.5755962520        4.5484911614        3.0572069730
Mo           -0.0039285367        3.6364598168        9.1733183323
S            -1.5751194283        4.5493907362        7.6089684616
S             0.0001592193        3.6388360886        4.6250266443
S            -0.0000789758        3.6386851186        1.4893388743
S            -1.5768078980        4.5462365658       10.7482127530
Mo           -3.1512226931        7.2774749019       -9.1672481230    0   0   0
Mo           -1.5755910988        6.3678216792       -3.0555115988    0   0   0
S            -3.1512162438        7.2774954350       -4.6232578178    0   0   0
S            -1.5756025210        6.3677884239       -7.6014065489    0   0   0
S            -1.5756020673        6.3677895528      -10.7330757790    0   0   0
S            -3.1512127704        7.2774877076       -1.4877200710    0   0   0
Mo           -3.1512195455        7.2775159174        3.0569093410
Mo           -1.5742808542        6.3664210143        9.1823014736
S            -3.1511939452        7.2771983325        7.6149624047
S            -1.5754915198        6.3680877656        4.6248093303
S            -1.5756318616        6.3676544114        1.4891178323
S            -3.1511970168        7.2764986538       10.7506952528
Mo           -4.7268400355       10.0065304219       -9.1672481230    0   0   0
Mo           -3.1512405618        9.0968403586       -3.0554816746    0   0   0
S            -4.7268341792       10.0065523623       -4.6232463762    0   0   0
S            -3.1512198634        9.0968439439       -7.6014065489    0   0   0
S            -3.1512194097        9.0968450728      -10.7330757790    0   0   0
S            -4.7268370797       10.0065537885       -1.4877176751    0   0   0
Mo           -4.7268115693       10.0065292363        3.0569020909
Mo           -3.1511809991        9.0968648040        9.1823919274
S            -4.7270600451       10.0066899235        7.6149601865
S            -3.1512264777        9.0968538053        4.6247606308
S            -3.1512115225        9.0968507856        1.4890564261
S            -4.7276695029       10.0070390123       10.7506884931
Mo            3.1512517547        1.8193638619       -9.1672481230    0   0   0
Mo            4.7269020221        0.9097289540       -3.0554823951    0   0   0
S             3.1512612351        1.8193882564       -4.6232320683    0   0   0
S             4.7268719268        0.9096773839       -7.6014065489    0   0   0
S             4.7268723805        0.9096785128      -10.7330757790    0   0   0
S             3.1512592485        1.8193890201       -1.4877261251    0   0   0
Mo            3.1512646234        1.8194590449        3.0566451454
Mo            4.7274801007        0.9115129600        9.1823005569
S             3.1512986345        1.8203899822        7.6154059716
S             4.7265843910        0.9096543097        4.6248144381
S             4.7270329397        0.9097499197        1.4891127881
S             3.1513032369        1.8174467851       10.7544549483
[...]
S             7.8781416813        6.3676497244        1.4891093548
S             6.3042114873        7.2784615173       10.7544642529
Mo            4.7268792535       10.0065304219       -9.1672481230    0   0   0
Mo            6.3025111524        9.0968738021       -3.0554915260    0   0   0
S             4.7268840634       10.0065452125       -4.6232380477    0   0   0
S             6.3024994256        9.0968439439       -7.6014065489    0   0   0
S             6.3024998793        9.0968450728      -10.7330757790    0   0   0
S             4.7268847312       10.0065459141       -1.4877283294    0   0   0
Mo            4.7269307424       10.0065044919        3.0572066688
Mo            6.3006834628        9.0964386759        9.1822976753
S             4.7275120252       10.0056710893        7.6089565297
S             6.3026941667        9.0966330707        4.6248113453
S             6.3023752457        9.0969493713        1.4891057835
S             4.7256252765       10.0087096844       10.7482248075
Au            3.1513278836        5.4580193960       12.7735753916
End final coordinates

     Writing all to output data dir ./outdir/pwscf.save/

     General routines

     Parallel routines

   This run was terminated on:  10:28:36   8Nov2023

   JOB DONE.
Application 11384922 resources: utime ~1271407s, stime ~11737s, Rss ~3551388, inblocks ~0, outblocks ~50474048