     Program PWSCF v.7.2 starts on 10Aug2023 at 23:37:17

     Waiting for input...
     Reading input from standard input
Warning: card &CELL ignored
Warning: card / ignored

     Current dimensions of program PWSCF are:
     Max number of different atomic species (ntypx) = 10
     Max number of k-points (npk) =  40000
     Max angular momentum in pseudopotentials (lmaxx) =  4
     file Mo.pbe-spn-kjpaw_psl.1.0.0.UPF: wavefunction(s)  4S 4D renormalized
     file S.pbe-n-kjpaw_psl.1.0.0.UPF: wavefunction(s)  3S 3P renormalized
     file Pd.pbe-spn-kjpaw_psl.1.0.0.UPF: wavefunction(s)  4S 5S 4D renormalized

     R & G space division:  proc/nbgrp/npool/nimage =      36
     Subspace diagonalization in iterative solution of the eigenvalue problem:
     one sub-group per band group will be used

     Using Slab Decomposition

     bravais-lattice index     =            0
     lattice parameter (alat)  =      23.8395  a.u.
     unit-cell volume          =   28182.8498 (a.u.)^3
     number of atoms/cell      =          145
     number of atomic types    =            3
     number of electrons       =      1266.00
     number of Kohn-Sham states=          760
     kinetic-energy cutoff     =      77.0000  Ry
     charge density cutoff     =     539.0000  Ry
     scf convergence threshold =      1.0E-06
     mixing beta               =       0.2000
     number of iterations used =            8  plain     mixing
     energy convergence thresh.=      1.0E-04
     force convergence thresh. =      1.0E-03
     Exchange-correlation= SLA  PW   PBX  PBC
                           (   1   4   3   4   0   0   0)
     nstep                     =         1000

     Effective Screening Medium Method
     Boundary Conditions: Vacuum-Slab-Vacuum
     total charge in unit cell        =   0.0000
     grid points for fit at edges     =        4

     celldm(1)=  23.839504  celldm(2)=   0.000000  celldm(3)=   0.000000
     celldm(4)=   0.000000  celldm(5)=   0.000000  celldm(6)=   0.000000

     crystal axes: (cart. coord. in units of alat)
               a(1) = (   1.000000   0.000000   0.000000 )
               a(2) = (  -0.500001   0.866026   0.000000 )
               a(3) = (   0.000000   0.000000   2.401941 )

     reciprocal axes: (cart. coord. in units 2 pi/alat)
               b(1) = (  1.000000  0.577351  0.000000 )
               b(2) = (  0.000000  1.154700  0.000000 )
               b(3) = (  0.000000  0.000000  0.416330 )

     PseudoPot. # 1 for Mo read from file:
     ./pseudo/Mo.pbe-spn-kjpaw_psl.1.0.0.UPF
     MD5 check sum: 317bf72632116215fd98f72de1686f13
     Pseudo is Projector augmented-wave + core cor, Zval = 14.0
     Generated using 'atomic' code by A. Dal Corso  v.7.2
     Shape of augmentation charge: PSQ
     Using radial grid of 1229 points,  6 beta functions with:
                l(1) =   0
                l(2) =   0
                l(3) =   1
                l(4) =   1
                l(5) =   2
                l(6) =   2
     Q(r) pseudized with 0 coefficients

     PseudoPot. # 2 for S  read from file:
     ./pseudo/S.pbe-n-kjpaw_psl.1.0.0.UPF
     MD5 check sum: 8b7b5302570d38d5e87fed6a1065abda
     Pseudo is Projector augmented-wave + core cor, Zval =  6.0
     Generated using 'atomic' code by A. Dal Corso  v.7.2
     Shape of augmentation charge: PSQ
     Using radial grid of 1151 points,  6 beta functions with:
                l(1) =   0
                l(2) =   0
                l(3) =   1
                l(4) =   1
                l(5) =   2
                l(6) =   2
     Q(r) pseudized with 0 coefficients

     PseudoPot. # 3 for Pd read from file:
     ./pseudo/Pd.pbe-spn-kjpaw_psl.1.0.0.UPF
     MD5 check sum: a60571a671f2502b8a6a4569d20a6edb
     Pseudo is Projector augmented-wave + core cor, Zval = 18.0
     Generated using 'atomic' code by A. Dal Corso  v.7.2
     Shape of augmentation charge: PSQ
     Using radial grid of 1235 points,  6 beta functions with:
                l(1) =   0
                l(2) =   0
                l(3) =   1
                l(4) =   1
                l(5) =   2
                l(6) =   2
     Q(r) pseudized with 0 coefficients

     atomic species   valence    mass     pseudopotential
        Mo            14.00    95.95000     Mo( 1.00)
        S              6.00    32.06000     S ( 1.00)
        Pd            18.00   106.42000     Pd( 1.00)

     No symmetry found

   Cartesian axes

     site n.     atom                  positions (alat units)
         1           Mo  tau(   1) = (   0.1249983   0.2165050   0.4823527  )
         2           Mo  tau(   2) = (   0.1250004   0.0721694  -0.4825273  )
         3           Mo  tau(   3) = (  -0.0000019   0.1443377  -0.0000751  )
         4           S   tau(   4) = (   0.0000004   0.0000006  -0.6064556  )
         5           S   tau(   5) = (   0.1249982   0.0721692  -0.1241671  )
         6           S   tau(   6) = (  -0.0000016   0.1443364   0.3582431  )
         7           S   tau(   7) = (   0.0000004   0.0000005  -0.3584711  )
         8           S   tau(   8) = (   0.1249982   0.0721691   0.1241550  )
         9           S   tau(   9) = (  -0.0000015   0.1443364   0.6067201  )
        10           Mo  tau(  10) = (  -0.0000021   0.4330115   0.4823527  )
        11           Mo  tau(  11) = (   0.0000001   0.2886759  -0.4825273  )
        12           Mo  tau(  12) = (  -0.1250009   0.3608432  -0.0000744  )
        13           S   tau(  13) = (  -0.1249999   0.2165071  -0.6064556  )
        14           S   tau(  14) = (  -0.0000017   0.2886753  -0.1241667  )
        15           S   tau(  15) = (  -0.1250020   0.3608427   0.3582430  )
        16           S   tau(  16) = (  -0.1249998   0.2165070  -0.3584711  )
        17           S   tau(  17) = (  -0.0000017   0.2886752   0.1241551  )
        18           S   tau(  18) = (  -0.1250020   0.3608428   0.6067200  )
        19           Mo  tau(  19) = (  -0.1250025   0.6495181   0.4823527  )
        20           Mo  tau(  20) = (  -0.1250002   0.5051824  -0.4825273  )
        21           Mo  tau(  21) = (  -0.2500019   0.5773502  -0.0000747  )
        22           S   tau(  22) = (  -0.2500002   0.4330136  -0.6064556  )
        23           S   tau(  23) = (  -0.1250019   0.5051815  -0.1241659  )
        24           S   tau(  24) = (  -0.2500023   0.5773492   0.3582430  )
        25           S   tau(  25) = (  -0.2500001   0.4330135  -0.3584711  )
        26           S   tau(  26) = (  -0.1250021   0.5051816   0.1241548  )
        27           S   tau(  27) = (  -0.2500023   0.5773492   0.6067201  )
        28           Mo  tau(  28) = (   0.2499985  -0.0000014   0.4823528  )
        29           Mo  tau(  29) = (  -0.2500004   0.7216889  -0.4825273  )
        30           Mo  tau(  30) = (  -0.3750035   0.7938587  -0.0000751  )
        31           S   tau(  31) = (  -0.3750004   0.6495201  -0.6064556  )
        32           S   tau(  32) = (  -0.2500024   0.7216883  -0.1241659  )
        33           S   tau(  33) = (  -0.3750023   0.7938557   0.3582430  )
        34           S   tau(  34) = (  -0.3750004   0.6495200  -0.3584711  )
        35           S   tau(  35) = (  -0.2500028   0.7216884   0.1241544  )
        36           S   tau(  36) = (  -0.3750023   0.7938556   0.6067199  )
        37           Mo  tau(  37) = (   0.3749981   0.2165050   0.4823525  )
        38           Mo  tau(  38) = (   0.3750004   0.0721694  -0.4825273  )
        39           Mo  tau(  39) = (   0.2499973   0.1443382  -0.0000750  )
        40           S   tau(  40) = (   0.2500004   0.0000006  -0.6064556  )
        41           S   tau(  41) = (   0.3749982   0.0721689  -0.1241664  )
        42           S   tau(  42) = (   0.2499983   0.1443364   0.3582430  )
        43           S   tau(  43) = (   0.2500004   0.0000005  -0.3584711  )
        44           S   tau(  44) = (   0.3749982   0.0721692   0.1241548  )
        45           S   tau(  45) = (   0.2499984   0.1443363   0.6067201  )
        46           Mo  tau(  46) = (   0.2499981   0.4330115   0.4823527  )
        47           Mo  tau(  47) = (   0.2500001   0.2886759  -0.4825273  )
        48           Mo  tau(  48) = (   0.1249978   0.3608446  -0.0000747  )
        49           S   tau(  49) = (   0.1250001   0.2165071  -0.6064556  )
        50           S   tau(  50) = (   0.2499977   0.2886754  -0.1241668  )
        51           S   tau(  51) = (   0.1249981   0.3608427   0.3582430  )
        52           S   tau(  52) = (   0.1250002   0.2165070  -0.3584711  )
        53           S   tau(  53) = (   0.2499978   0.2886754   0.1241550  )
        54           S   tau(  54) = (   0.1249981   0.3608427   0.6067200  )
        55           Mo  tau(  55) = (   0.1249976   0.6495181   0.4823528  )
        56           Mo  tau(  56) = (   0.1249998   0.5051824  -0.4825273  )
        57           Mo  tau(  57) = (  -0.0000011   0.5773502  -0.0000746  )
        58           S   tau(  58) = (  -0.0000002   0.4330136  -0.6064556  )
        59           S   tau(  59) = (   0.1249978   0.5051816  -0.1241667  )
        60           S   tau(  60) = (  -0.0000023   0.5773491   0.3582431  )
[...]
       131           S   tau( 131) = (   0.6249978   0.5051817  -0.1241660  )
       132           S   tau( 132) = (   0.4999980   0.5773491   0.3582431  )
       133           S   tau( 133) = (   0.4999999   0.4330135  -0.3584711  )
       134           S   tau( 134) = (   0.6249975   0.5051818   0.1241544  )
       135           S   tau( 135) = (   0.4999981   0.5773491   0.6067201  )
       136           Mo  tau( 136) = (  -0.0000012  -0.0000013   0.4823527  )
       137           Mo  tau( 137) = (   0.4999996   0.7216889  -0.4825273  )
       138           Mo  tau( 138) = (   0.3749969   0.7938580  -0.0000749  )
       139           S   tau( 139) = (   0.3749996   0.6495201  -0.6064556  )
       140           S   tau( 140) = (   0.4999973   0.7216884  -0.1241666  )
       141           S   tau( 141) = (   0.3749976   0.7938558   0.3582430  )
       142           S   tau( 142) = (   0.3749996   0.6495200  -0.3584711  )
       143           S   tau( 143) = (   0.4999974   0.7216884   0.1241546  )
       144           S   tau( 144) = (   0.3749976   0.7938557   0.6067202  )
       145           Pd  tau( 145) = (   0.2500134   0.4330448   0.7256255  )

     DFT-D3 Dispersion Correction (3-body terms):
       Reference C6 values for interpolation:

         atom   Coordination number   C6
         S          0.000           268.01
         S          0.995           261.99
         S          1.990           251.62
         Mo         0.000          1691.79
         Mo         1.942          1004.01
         Mo        11.056           674.22
         Pd         0.000          1217.01
         Pd         1.863           573.90
         Pd         5.710           531.75

       Values used:

         atom   Coordination number  R0_AB[au]  C6      C8
         Mo        10.195            3.547    674.22  77634.20
         Mo        10.189            3.547    674.22  77634.20
         Mo        10.201            3.547    674.22  77634.20
         S          3.753            3.128    251.62  12327.25
[...]
     atom   13 type  2   force =     0.00000000    0.00000000    0.00000000
     atom   14 type  2   force =     0.00000031    0.00000053   -0.00001079
     atom   15 type  2   force =     0.00000093    0.00000306   -0.00000536
     atom   16 type  2   force =     0.00000000    0.00000000    0.00000000
     atom   17 type  2   force =    -0.00001133   -0.00000604    0.00000308
     atom   18 type  2   force =     0.00001568   -0.00000792   -0.00002465
     atom   19 type  1   force =     0.00002503   -0.00001472    0.00002266
     atom   20 type  1   force =     0.00000000    0.00000000    0.00000000
     atom   21 type  1   force =    -0.00000210    0.00000074   -0.00003146
     atom   22 type  2   force =     0.00000000    0.00000000    0.00000000
     atom   23 type  2   force =    -0.00000359    0.00000405   -0.00000450
     atom   24 type  2   force =    -0.00000063   -0.00003267   -0.00001861
     atom   25 type  2   force =     0.00000000    0.00000000    0.00000000
     atom   26 type  2   force =    -0.00001161   -0.00000900    0.00000921
     atom   27 type  2   force =    -0.00000069   -0.00000477   -0.00003068
     atom   28 type  1   force =     0.00000076    0.00002460    0.00002617
     atom   29 type  1   force =     0.00000000    0.00000000    0.00000000
     atom   30 type  1   force =    -0.00000066   -0.00000352   -0.00003177
     atom   31 type  2   force =     0.00000000    0.00000000    0.00000000
     atom   32 type  2   force =    -0.00000004   -0.00000057   -0.00000283
     atom   33 type  2   force =    -0.00002879    0.00001466   -0.00001876
     atom   34 type  2   force =     0.00000000    0.00000000    0.00000000
     atom   35 type  2   force =     0.00000019   -0.00000085    0.00000481
     atom   36 type  2   force =    -0.00000440    0.00000155   -0.00003083
     atom   37 type  1   force =    -0.00002034    0.00001233   -0.00004331
     atom   38 type  1   force =     0.00000000    0.00000000    0.00000000
     atom   39 type  1   force =    -0.00000242    0.00000306   -0.00003456
     atom   40 type  2   force =     0.00000000    0.00000000    0.00000000
     atom   41 type  2   force =    -0.00000111   -0.00000568   -0.00000556
     atom   42 type  2   force =     0.00000068    0.00002561    0.00000669
     atom   43 type  2   force =     0.00000000    0.00000000    0.00000000
     atom   44 type  2   force =     0.00001389   -0.00000641    0.00001018
     atom   45 type  2   force =     0.00000096    0.00003385   -0.00003020
     atom   46 type  1   force =     0.00000103    0.00000105   -0.00004404
     atom   47 type  1   force =     0.00000000    0.00000000    0.00000000
     atom   48 type  1   force =     0.00002248    0.00001337   -0.00002410
     atom   49 type  2   force =     0.00000000    0.00000000    0.00000000
     atom   50 type  2   force =     0.00000012   -0.00000049   -0.00000161
     atom   51 type  2   force =    -0.00001067   -0.00000555    0.00003566
     atom   52 type  2   force =     0.00000000    0.00000000    0.00000000
     atom   53 type  2   force =     0.00000010    0.00000069   -0.00000742
     atom   54 type  2   force =     0.00001245    0.00000771   -0.00000468
     atom   55 type  1   force =    -0.00000232   -0.00002531   -0.00004369
     atom   56 type  1   force =     0.00000000    0.00000000    0.00000000
     atom   57 type  1   force =     0.00000325   -0.00000318   -0.00003396
     atom   58 type  2   force =     0.00000000    0.00000000    0.00000000
     atom   59 type  2   force =    -0.00000124    0.00000104   -0.00000125
     atom   60 type  2   force =     0.00002161   -0.00001212    0.00000786
[...]
     atom  131 type  2   force =     0.00000394    0.00000438   -0.00000369
     atom  132 type  2   force =    -0.00002154   -0.00001307    0.00000833
     atom  133 type  2   force =     0.00000000    0.00000000    0.00000000
     atom  134 type  2   force =     0.00001155   -0.00000892    0.00000932
     atom  135 type  2   force =    -0.00002952   -0.00001727   -0.00003265
     atom  136 type  1   force =     0.00001193   -0.00001114   -0.00003157
     atom  137 type  1   force =     0.00000000    0.00000000    0.00000000
     atom  138 type  1   force =     0.00001047    0.00002599    0.00000086
     atom  139 type  2   force =     0.00000000    0.00000000    0.00000000
     atom  140 type  2   force =     0.00000558    0.00000061   -0.00000423
     atom  141 type  2   force =     0.00000083   -0.00000396   -0.00000511
     atom  142 type  2   force =     0.00000000    0.00000000    0.00000000
     atom  143 type  2   force =    -0.00000237    0.00001407    0.00000944
     atom  144 type  2   force =    -0.00001536   -0.00001090   -0.00002446
     atom  145 type  3   force =    -0.00000058    0.00000082   -0.00023973

     DFT-D3 dispersion contribution to forces:
     atom    1 type  1   force =     0.00011942    0.00019358   -0.00235044
     atom    2 type  1   force =     0.00000014   -0.00000014    0.00260462
     atom    3 type  1   force =    -0.00000723   -0.00000755   -0.00002707
     atom    4 type  2   force =    -0.00000000    0.00000000    0.00441174
     atom    5 type  2   force =     0.00000109   -0.00000134   -0.00004741
     atom    6 type  2   force =    -0.00000839    0.00000133   -0.00014960
     atom    7 type  2   force =     0.00000050   -0.00000030    0.00023547
     atom    8 type  2   force =    -0.00000300   -0.00002101    0.00008768
     atom    9 type  2   force =     0.00018030    0.00021203   -0.00431436
     atom   10 type  1   force =     0.00022735    0.00000664   -0.00235044
     atom   11 type  1   force =     0.00000014    0.00000008    0.00260436
     atom   12 type  1   force =    -0.00001017   -0.00000247   -0.00002707
     atom   13 type  2   force =     0.00000001    0.00000001    0.00441169
     atom   14 type  2   force =    -0.00000021   -0.00000012   -0.00004949
     atom   15 type  2   force =    -0.00000306   -0.00000791   -0.00014961
     atom   16 type  2   force =     0.00000038    0.00000023    0.00023567
     atom   17 type  2   force =    -0.00001130   -0.00000652    0.00009417
     atom   18 type  2   force =     0.00027377    0.00005013   -0.00431436
     atom   19 type  1   force =     0.00009188   -0.00005305   -0.00254603
     atom   20 type  1   force =    -0.00000005    0.00000019    0.00260463
     atom   21 type  1   force =    -0.00000001    0.00000079   -0.00001877
     atom   22 type  2   force =     0.00000000   -0.00000000    0.00441174
     atom   23 type  2   force =    -0.00000061    0.00000161   -0.00004740
     atom   24 type  2   force =    -0.00000000    0.00000162   -0.00019630
     atom   25 type  2   force =    -0.00000001    0.00000058    0.00023547
     atom   26 type  2   force =    -0.00001971    0.00000790    0.00008767
     atom   27 type  2   force =     0.00000001   -0.00002283   -0.00439740
     atom   28 type  1   force =    -0.00000000    0.00010609   -0.00254603
     atom   29 type  1   force =     0.00000000   -0.00000000    0.00260481
     atom   30 type  1   force =     0.00000069   -0.00000042   -0.00001877
     atom   31 type  2   force =     0.00000005    0.00000003    0.00441184
     atom   32 type  2   force =     0.00000000   -0.00000000   -0.00004616
     atom   33 type  2   force =     0.00000140   -0.00000081   -0.00019630
     atom   34 type  2   force =     0.00000006    0.00000003    0.00023582
     atom   35 type  2   force =     0.00000001   -0.00000001    0.00009655
     atom   36 type  2   force =    -0.00001976    0.00001142   -0.00439740
     atom   37 type  1   force =    -0.00011944    0.00019357   -0.00235044
     atom   38 type  1   force =    -0.00000014   -0.00000014    0.00260463
     atom   39 type  1   force =     0.00000004   -0.00001410   -0.00003925
     atom   40 type  2   force =     0.00000000   -0.00000006    0.00441184
     atom   41 type  2   force =    -0.00000108   -0.00000132   -0.00004739
     atom   42 type  2   force =     0.00000001    0.00002669   -0.00010764
     atom   43 type  2   force =     0.00000001   -0.00000007    0.00023581
     atom   44 type  2   force =     0.00000302   -0.00002100    0.00008767
     atom   45 type  2   force =    -0.00000001    0.00038843   -0.00424685
     atom   46 type  1   force =    -0.00000002   -0.00000001   -0.00785793
     atom   47 type  1   force =     0.00000000   -0.00000001    0.00260454
     atom   48 type  1   force =    -0.00001004   -0.00000579   -0.00005909
     atom   49 type  2   force =    -0.00000001   -0.00000001    0.00441167
     atom   50 type  2   force =     0.00000001   -0.00000112   -0.00005301
     atom   51 type  2   force =     0.00003573    0.00002063    0.00013031
     atom   52 type  2   force =     0.00000018    0.00000003    0.00023571
     atom   53 type  2   force =     0.00000001   -0.00001945    0.00007812
     atom   54 type  2   force =    -0.00097557   -0.00056325   -0.00529489
     atom   55 type  1   force =     0.00010791   -0.00020023   -0.00235044
     atom   56 type  1   force =    -0.00000001    0.00000001    0.00260454
     atom   57 type  1   force =    -0.00001220    0.00000706   -0.00003925
     atom   58 type  2   force =    -0.00000002   -0.00000001    0.00441167
     atom   59 type  2   force =    -0.00000096    0.00000057   -0.00005301
     atom   60 type  2   force =     0.00002311   -0.00001334   -0.00010764
[...]
     atom  131 type  2   force =     0.00000061    0.00000160   -0.00004739
     atom  132 type  2   force =    -0.00002311   -0.00001335   -0.00010765
     atom  133 type  2   force =    -0.00000011    0.00000013    0.00023573
     atom  134 type  2   force =     0.00001970    0.00000790    0.00008766
     atom  135 type  2   force =    -0.00033638   -0.00019421   -0.00424683
     atom  136 type  1   force =    -0.00001174    0.00000680   -0.00255553
     atom  137 type  1   force =     0.00000018   -0.00000006    0.00260462
     atom  138 type  1   force =     0.00000291    0.00001000   -0.00002707
     atom  139 type  2   force =     0.00000000    0.00000002    0.00441167
     atom  140 type  2   force =     0.00000170   -0.00000028   -0.00004740
     atom  141 type  2   force =    -0.00000536    0.00000659   -0.00014961
     atom  142 type  2   force =     0.00000006   -0.00000017    0.00023572
     atom  143 type  2   force =     0.00001669    0.00001310    0.00008767
     atom  144 type  2   force =    -0.00009346   -0.00026214   -0.00431433
     atom  145 type  3   force =    -0.00000008   -0.00000005    0.00244132

     Total force =     0.001661     Total SCF correction =     0.000366
     SCF correction compared to forces is large: reduce conv_thr to get better values
     Energy error            =      1.2E-05 Ry
     Gradient error          =      6.4E-04 Ry/Bohr

     bfgs converged in  17 scf cycles and  16 bfgs steps
     (criteria: energy <  1.0E-04 Ry, force <  1.0E-03 Ry/Bohr)

     End of BFGS Geometry Optimization

     Final energy             =  -24357.1728870826 Ry

     File ./outdir/pwscf.bfgs deleted, as requested
Begin final coordinates

ATOMIC_POSITIONS (angstrom)
Mo            1.5703613864        2.7178817393        6.0883108471
Mo            1.5769197498        0.9104407117       -6.0872367793    0   0   0
Mo            0.0001942117        1.8211270351       -0.0006730669
S             0.0000044503        0.0000077495       -7.6506323570    0   0   0
S             1.5766906670        0.9108646077       -1.5667171507
S             0.0023629950        1.8227808659        4.5078229266
S             0.0000053241        0.0000068460       -4.5222282367    0   0   0
S             1.5771923454        0.9101093191        1.5656829642
S            -0.0116339578        1.8083185758        7.6478502179
Mo           -0.0149006888        5.4636354505        6.0883096296
Mo            0.0000011799        3.6417399547       -6.0872367793    0   0   0
Mo           -1.5766131748        4.5522307229       -0.0006723678
S            -1.5769141197        2.7313069925       -7.6506323570    0   0   0
S             0.0002925911        3.6419226668       -1.5659970847
S            -1.5740804518        4.5532546690        4.5078217411
S            -1.5769132459        2.7313060890       -4.5222282367    0   0   0
S             0.0011361888        3.6424086820        1.5671207920
S            -1.5936007141        4.5483639343        7.6478505759
Mo           -1.5786809985        8.1948915150        6.0797816784
Mo           -1.5769173901        6.3730391977       -6.0872367793    0   0   0
Mo           -3.1538627704        7.2833090649       -0.0018805669
S            -3.1538326896        5.4626062355       -7.6506323570    0   0   0
S            -1.5766775861        6.3726412811       -1.5667202826
S            -3.1538496968        7.2863973030        4.5103497769
S            -3.1538318159        5.4626053320       -4.5222282367    0   0   0
S            -1.5770776026        6.3734536793        1.5656890668
S            -3.1538531653        7.2814807450        7.6453629934
Mo            3.1538145477       -0.0020199287        6.0797837173
Mo           -3.1538359601        9.1043384407       -6.0872367793    0   0   0
Mo           -4.7309165472       10.0148383903       -0.0018813301
S            -4.7307512596        8.1939054785       -7.6506323570    0   0   0
S            -3.1538627142        9.1043309944       -1.5672612057
S            -4.7282188793       10.0132858887        4.5103497839
S            -4.7307503859        8.1939045750       -4.5222282367    0   0   0
S            -3.1538667147        9.1043303462        1.5646771032
S            -4.7324812252       10.0157403200        7.6453631419
Mo            4.7372632402        2.7178765316        6.0883039868
Mo            4.7307503218        0.9104407117       -6.0872367793    0   0   0
Mo            3.1538177136        1.8209892916       -0.0012213613
S             3.1538350223        0.0000077495       -7.6506323570    0   0   0
S             4.7309376020        0.9108611541       -1.5667229827
S             3.1538089231        1.8206451627        4.5170331361
S             3.1538358961        0.0000068460       -4.5222282367    0   0   0
S             4.7304355308        0.9101091953        1.5656945972
S             3.1538146075        1.8137992003        7.6518221467
Mo            3.1538105148        5.4625890420        6.1472945519
Mo            3.1538317519        3.6417399547       -6.0872367793    0   0   0
Mo            1.5772652257        4.5523849763       -0.0007214049
S             1.5769164523        2.7313069925       -7.6506323570    0   0   0
S             3.1538135826        3.6419150241       -1.5664356205
S             1.5976005595        4.5641114642        4.5616044081
S             1.5769173261        2.7313060890       -4.5222282367    0   0   0
S             3.1538149074        3.6416282147        1.5667695999
S             1.4798451087        4.4961258537        7.7065550925
Mo            1.5685428081        8.2062553264        6.0883009711
Mo            1.5769131819        6.3730391977       -6.0872367793    0   0   0
Mo            0.0000756738        7.2834107928       -0.0012221280
S            -0.0000021176        5.4626062355       -7.6506323570    0   0   0
S             1.5770422741        6.3729468464       -1.5664392732
S            -0.0002087530        7.2835583283        4.5170302321
[...]
S             7.8842748158        6.3726380860       -1.5667216130
S             6.3078247254        7.2835634617        4.5170264446
S             6.3076599001        5.4626053320       -4.5222282367    0   0   0
S             7.8846780868        6.3734460714        1.5656930003
S             6.3137497415        7.2869856975        7.6518076036
Mo           -0.0008907080        0.0005060463        6.0718431091
Mo            6.3076557559        9.1043384407       -6.0872367793    0   0   0
Mo            4.7305957005       10.0144387790       -0.0006746603
S             4.7307404564        8.1939054785       -7.6506323570    0   0   0
S             6.3071493618        9.1042814124       -1.5667199886
S             4.7302538402       10.0117513652        4.5078142742
S             4.7307413301        8.1939045750       -4.5222282367    0   0   0
S             6.3080521403        9.1042283056        1.5656889332
S             4.7357657329       10.0310953935        7.6478333257
Pd            3.1538115368        5.4625894670        9.0175538868
End final coordinates

     Writing all to output data dir ./outdir/pwscf.save/

     General routines

     Parallel routines

   This run was terminated on:  20:10: 9  11Aug2023

   JOB DONE.
Application 11026420 resources: utime ~2629579s, stime ~33274s, Rss ~2384908, inblocks ~0, outblocks ~36643576