     Program PWSCF v.7.3 starts on 11Mar2024 at  6:58: 5

     Waiting for input...
     Reading input from standard input
Warning: card &CELL ignored
Warning: card / ignored

     Current dimensions of program PWSCF are:
     Max number of different atomic species (ntypx) = 10
     Max number of k-points (npk) =  40000
     Max angular momentum in pseudopotentials (lmaxx) =  4
     file Mo.pbe-spn-kjpaw_psl.1.0.0.UPF: wavefunction(s)  4S 4D renormalized
     file S.pbe-n-kjpaw_psl.1.0.0.UPF: wavefunction(s)  3S 3P renormalized
     file Pd.pbe-spn-kjpaw_psl.1.0.0.UPF: wavefunction(s)  4S 5S 4D renormalized
     file Pt.pbe-spfn-kjpaw_psl.1.0.0.UPF: wavefunction(s)  5P 4F renormalized

     R & G space division:  proc/nbgrp/npool/nimage =      36
     Subspace diagonalization in iterative solution of the eigenvalue problem:
     one sub-group per band group will be used

     Using Slab Decomposition

     bravais-lattice index     =            0
     lattice parameter (alat)  =      23.8395  a.u.
     unit-cell volume          =   28182.8498 (a.u.)^3
     number of atoms/cell      =          146
     number of atomic types    =            4
     number of electrons       =      1298.00
     number of Kohn-Sham states=          779
     kinetic-energy cutoff     =      77.0000  Ry
     charge density cutoff     =     539.0000  Ry
     scf convergence threshold =      1.0E-06
     mixing beta               =       0.2000
     number of iterations used =            8  plain     mixing
     energy convergence thresh.=      1.0E-04
     force convergence thresh. =      1.0E-03
     Exchange-correlation= SLA  PW   PBX  PBC
                           (   1   4   3   4   0   0   0)
     nstep                     =         1000

     Effective Screening Medium Method
     Boundary Conditions: Vacuum-Slab-Vacuum
     total charge in unit cell        =   0.0000
     grid points for fit at edges     =        4

     celldm(1)=  23.839504  celldm(2)=   0.000000  celldm(3)=   0.000000
     celldm(4)=   0.000000  celldm(5)=   0.000000  celldm(6)=   0.000000

     crystal axes: (cart. coord. in units of alat)
               a(1) = (   1.000000   0.000000   0.000000 )
               a(2) = (  -0.500001   0.866026   0.000000 )
               a(3) = (   0.000000   0.000000   2.401941 )

     reciprocal axes: (cart. coord. in units 2 pi/alat)
               b(1) = (  1.000000  0.577351  0.000000 )
               b(2) = (  0.000000  1.154700  0.000000 )
               b(3) = (  0.000000  0.000000  0.416330 )

     PseudoPot. # 1 for Mo read from file:
     ./pseudo/Mo.pbe-spn-kjpaw_psl.1.0.0.UPF
     MD5 check sum: 317bf72632116215fd98f72de1686f13
     Pseudo is Projector augmented-wave + core cor, Zval = 14.0
     Generated using 'atomic' code by A. Dal Corso  v.7.2
     Shape of augmentation charge: PSQ
     Using radial grid of 1229 points,  6 beta functions with:
                l(1) =   0
                l(2) =   0
                l(3) =   1
                l(4) =   1
                l(5) =   2
                l(6) =   2
     Q(r) pseudized with 0 coefficients

     PseudoPot. # 2 for S  read from file:
     ./pseudo/S.pbe-n-kjpaw_psl.1.0.0.UPF
     MD5 check sum: 8b7b5302570d38d5e87fed6a1065abda
     Pseudo is Projector augmented-wave + core cor, Zval =  6.0
     Generated using 'atomic' code by A. Dal Corso  v.7.2
     Shape of augmentation charge: PSQ
     Using radial grid of 1151 points,  6 beta functions with:
                l(1) =   0
                l(2) =   0
                l(3) =   1
                l(4) =   1
                l(5) =   2
                l(6) =   2
     Q(r) pseudized with 0 coefficients

     PseudoPot. # 3 for Pd read from file:
     ./pseudo/Pd.pbe-spn-kjpaw_psl.1.0.0.UPF
     MD5 check sum: a60571a671f2502b8a6a4569d20a6edb
     Pseudo is Projector augmented-wave + core cor, Zval = 18.0
     Generated using 'atomic' code by A. Dal Corso  v.7.2
     Shape of augmentation charge: PSQ
     Using radial grid of 1235 points,  6 beta functions with:
                l(1) =   0
                l(2) =   0
                l(3) =   1
                l(4) =   1
                l(5) =   2
                l(6) =   2
     Q(r) pseudized with 0 coefficients

     PseudoPot. # 4 for Pt read from file:
     ./pseudo/Pt.pbe-spfn-kjpaw_psl.1.0.0.UPF
     MD5 check sum: 620096ebf4e6ebacc94de60fd67efcb5
     Pseudo is Projector augmented-wave + core cor, Zval = 32.0
     Generated using 'atomic' code by A. Dal Corso  v.7.2
     Shape of augmentation charge: PSQ
     Using radial grid of 1277 points,  8 beta functions with:
                l(1) =   0
                l(2) =   0
                l(3) =   1
                l(4) =   1
                l(5) =   2
                l(6) =   2
                l(7) =   3
                l(8) =   3
     Q(r) pseudized with 0 coefficients

     atomic species   valence    mass     pseudopotential
     Mo               14.00    95.95000     Mo( 1.00)
     S                 6.00    32.06000     S ( 1.00)
     Pd               18.00   106.42000     Pd( 1.00)
     Pt               32.00   195.08400     Pt( 1.00)

     No symmetry found

   Cartesian axes

     site n.     atom                  positions (alat units)
         1        Mo     tau(   1) = (   0.1244805   0.2154429   0.4826124  )
         2        Mo     tau(   2) = (   0.1250004   0.0721694  -0.4825273  )
         3        Mo     tau(   3) = (   0.0000154   0.1443583  -0.0000534  )
         4        S      tau(   4) = (   0.0000004   0.0000006  -0.6064556  )
         5        S      tau(   5) = (   0.1249822   0.0722030  -0.1241916  )
         6        S      tau(   6) = (   0.0001873   0.1444894   0.3573292  )
         7        S      tau(   7) = (   0.0000004   0.0000005  -0.3584711  )
         8        S      tau(   8) = (   0.1250220   0.0721432   0.1241096  )
         9        S      tau(   9) = (  -0.0009222   0.1433430   0.6062350  )
        10        Mo     tau(  10) = (  -0.0011812   0.4330952   0.4826123  )
        11        Mo     tau(  11) = (   0.0000001   0.2886759  -0.4825273  )
        12        Mo     tau(  12) = (  -0.1249761   0.3608493  -0.0000533  )
        13        S      tau(  13) = (  -0.1249999   0.2165071  -0.6064556  )
        14        S      tau(  14) = (   0.0000232   0.2886904  -0.1241345  )
        15        S      tau(  15) = (  -0.1247753   0.3609305   0.3573291  )
        16        S      tau(  16) = (  -0.1249998   0.2165070  -0.3584711  )
        17        S      tau(  17) = (   0.0000901   0.2887289   0.1242236  )
        18        S      tau(  18) = (  -0.1263226   0.3605428   0.6062351  )
        19        Mo     tau(  19) = (  -0.1251400   0.6495983   0.4819363  )
        20        Mo     tau(  20) = (  -0.1250002   0.5051824  -0.4825273  )
        21        Mo     tau(  21) = (  -0.2500026   0.5773383  -0.0001491  )
        22        S      tau(  22) = (  -0.2500002   0.4330136  -0.6064556  )
        23        S      tau(  23) = (  -0.1249812   0.5051509  -0.1241919  )
        24        S      tau(  24) = (  -0.2500015   0.5775831   0.3575295  )
        25        S      tau(  25) = (  -0.2500001   0.4330135  -0.3584711  )
        26        S      tau(  26) = (  -0.1250129   0.5052153   0.1241101  )
        27        S      tau(  27) = (  -0.2500018   0.5771934   0.6060379  )
        28        Mo     tau(  28) = (   0.2499987  -0.0001601   0.4819365  )
        29        Mo     tau(  29) = (  -0.2500004   0.7216889  -0.4825273  )
        30        Mo     tau(  30) = (  -0.3750135   0.7938631  -0.0001491  )
        31        S      tau(  31) = (  -0.3750004   0.6495201  -0.6064556  )
        32        S      tau(  32) = (  -0.2500026   0.7216883  -0.1242347  )
        33        S      tau(  33) = (  -0.3747997   0.7937400   0.3575295  )
        34        S      tau(  34) = (  -0.3750004   0.6495200  -0.3584711  )
        35        S      tau(  35) = (  -0.2500029   0.7216883   0.1240299  )
        36        S      tau(  36) = (  -0.3751376   0.7939346   0.6060379  )
        37        Mo     tau(  37) = (   0.3755166   0.2154425   0.4826119  )
        38        Mo     tau(  38) = (   0.3750004   0.0721694  -0.4825273  )
        39        Mo     tau(  39) = (   0.2499990   0.1443474  -0.0000968  )
        40        S      tau(  40) = (   0.2500004   0.0000006  -0.6064556  )
        41        S      tau(  41) = (   0.3750152   0.0722028  -0.1241921  )
        42        S      tau(  42) = (   0.2499983   0.1443201   0.3580593  )
        43        S      tau(  43) = (   0.2500004   0.0000005  -0.3584711  )
        44        S      tau(  44) = (   0.3749754   0.0721432   0.1241106  )
        45        S      tau(  45) = (   0.2499987   0.1437775   0.6065499  )
        46        Mo     tau(  46) = (   0.2499984   0.4330123   0.4872880  )
        47        Mo     tau(  47) = (   0.2500001   0.2886759  -0.4825273  )
        48        Mo     tau(  48) = (   0.1250277   0.3608616  -0.0000572  )
        49        S      tau(  49) = (   0.1250001   0.2165071  -0.6064556  )
        50        S      tau(  50) = (   0.2499987   0.2886898  -0.1241693  )
        51        S      tau(  51) = (   0.1266397   0.3617911   0.3615924  )
        52        S      tau(  52) = (   0.1250002   0.2165070  -0.3584711  )
        53        S      tau(  53) = (   0.2499988   0.2886671   0.1241958  )
        54        S      tau(  54) = (   0.1173054   0.3564020   0.6108885  )
        55        Mo     tau(  55) = (   0.1243363   0.6504991   0.4826116  )
        56        Mo     tau(  56) = (   0.1249998   0.5051824  -0.4825273  )
        57        Mo     tau(  57) = (   0.0000060   0.5773464  -0.0000969  )
        58        S      tau(  58) = (  -0.0000002   0.4330136  -0.6064556  )
        59        S      tau(  59) = (   0.1250101   0.5051751  -0.1241696  )
        60        S      tau(  60) = (  -0.0000165   0.5773581   0.3580590  )
[...]
       132        S      tau( 132) = (   0.5000130   0.5773585   0.3580587  )
       133        S      tau( 133) = (   0.4999999   0.4330135  -0.3584711  )
       134        S      tau( 134) = (   0.6250081   0.5052147   0.1241104  )
       135        S      tau( 135) = (   0.5004826   0.5776298   0.6065487  )
       136        Mo     tau( 136) = (  -0.0000706   0.0000401   0.4813070  )
       137        Mo     tau( 137) = (   0.4999996   0.7216889  -0.4825273  )
       138        Mo     tau( 138) = (   0.3749881   0.7938314  -0.0000535  )
       139        S      tau( 139) = (   0.3749996   0.6495201  -0.6064556  )
       140        S      tau( 140) = (   0.4999594   0.7216844  -0.1241918  )
       141        S      tau( 141) = (   0.3749610   0.7936184   0.3573285  )
       142        S      tau( 142) = (   0.3749996   0.6495200  -0.3584711  )
       143        S      tau( 143) = (   0.5000310   0.7216802   0.1241101  )
       144        S      tau( 144) = (   0.3753979   0.7951517   0.6062337  )
       145        Pd     tau( 145) = (   0.2499985   0.4330123   0.7148096  )
       146        Pt     tau( 146) = (  -0.1251653   0.6496069   0.7249121  )

     DFT-D3 Dispersion Correction (3-body terms):
       Reference C6 values for interpolation:

[...]
   -40.5451 -40.5395 -40.5393 -40.5268 -40.5267 -40.5227 -40.5224 -40.5223
   -40.5192 -40.4921 -40.4921 -40.4898 -40.4867 -40.4822 -40.4798 -40.4719
   -40.4671 -40.4557 -40.4502 -40.4309 -40.4233 -40.4074 -40.4000 -19.8319
   -19.8261 -19.7634 -19.7412 -19.6268 -19.6152 -19.3920 -19.3918 -19.3190
   -19.3188 -19.1967 -19.1963 -18.8177 -18.7720 -18.7650 -18.6979 -18.6796
   -18.6771 -18.6718 -18.6718 -18.6350 -18.5802 -18.5746 -18.5671 -18.5468
   -18.5438 -18.5233 -18.5200 -18.4893 -18.4647 -18.4408 -18.4302 -18.4209
   -18.3985 -18.3917 -18.3719 -18.3554 -18.3335 -18.3125 -18.2908 -18.2385
   -18.2126 -18.2075 -18.1812 -18.1687 -18.1548 -18.1120 -18.1107 -18.0901
   -18.0661 -18.0661 -18.0654 -18.0653 -18.0652 -18.0510 -18.0482 -18.0329
   -18.0164 -17.9974 -17.9913 -17.9863 -17.9830 -17.9785 -17.9772 -17.9580
   -17.9451 -17.9424 -17.9239 -17.9175 -17.9128 -17.8896 -17.8865 -17.8768
   -17.8742 -17.8714 -17.8663 -17.8266 -17.8158 -17.8142 -17.8077 -17.8020
   -17.8019 -17.7599 -17.7596 -17.7489 -17.7425 -17.7419 -17.7337 -17.7258
   -17.7252 -17.7163 -17.6970 -17.6834 -17.6814 -17.6326 -17.6157 -11.7890
   -11.6278 -11.6083 -11.5409 -11.4731 -11.4603 -11.4164 -11.4097 -11.4090
   -11.4083 -11.3953 -11.3794 -11.3681 -11.3461 -11.3170 -11.3164 -11.3074
   -11.2960 -11.2943 -11.2759 -11.2440 -11.2268 -11.2256 -11.2227 -11.2007
   -11.1948 -11.1948 -11.1503 -11.1488 -11.1458 -11.1010 -11.0982 -11.0892
   -11.0888 -11.0128 -10.9793 -10.9563 -10.9370 -10.9166 -10.9133 -10.9020
   -10.8799 -10.8579 -10.8532 -10.8476 -10.8337 -10.8306 -10.8227 -10.8179
   -10.7931 -10.7773 -10.7697 -10.7673 -10.7669 -10.7655 -10.7600 -10.7568
   -10.7490 -10.7474 -10.7061 -10.6998 -10.6985 -10.6941 -10.6651 -10.5432
   -10.5303 -10.5121 -10.4984 -10.4614 -10.4249 -10.4015 -10.3188 -10.2745
   -10.2270 -10.1589 -10.0943 -10.0887 -10.0615 -10.0531 -10.0504 -10.0198
    -9.9870  -9.9643  -9.9457  -9.9335  -9.9055  -9.8826  -9.8755  -9.8720
    -9.8656  -9.8541  -9.8428  -9.8342  -9.8262  -9.8252  -9.8169  -9.7811
    -9.7587  -9.7380  -9.7144  -9.6970  -9.6876  -9.6875  -9.6773  -9.6499
    -9.6491  -9.6466  -9.6345  -9.6315  -9.6087  -9.6034  -9.5790  -9.5666
    -9.5589  -9.5538  -9.5480  -9.4967  -9.4839  -9.4739  -9.4666  -9.4586
    -9.4550  -9.4233  -9.4213  -9.4070  -9.3963  -9.3330  -9.2849  -9.2636
    -9.2253  -9.1961  -9.1505  -9.1424  -9.1344  -9.1194  -9.1170  -9.0913
    -9.0765  -9.0729  -9.0698  -9.0461  -9.0434  -9.0005  -8.9944  -8.9854
    -8.9725  -8.9723  -8.9600  -8.9537  -8.9407  -8.9264  -8.9255  -8.9185
    -8.8977  -8.8927  -8.8913  -8.8742  -8.8726  -8.8701  -8.8490  -8.8487
    -8.8378  -8.8279  -8.7992  -8.7956  -8.7889  -8.7832  -8.7810  -8.7778
    -8.7769  -8.7732  -8.7683  -8.7622  -8.7591  -8.7436  -8.7287  -8.7103
[...]
    -3.6999  -3.6853  -3.6155  -3.5777  -3.5373  -3.5345  -3.5338  -3.5326
    -3.5172  -3.5172  -3.5123  -3.4981  -3.4904  -3.4891  -3.4413  -3.4391
    -3.4315  -3.4263  -3.4181  -3.4103  -3.4055  -3.4045  -3.4018  -3.3585
    -3.3491  -3.3444  -3.3228  -3.3034  -3.2995  -3.2903  -3.2846  -3.2844
    -3.2639  -3.2566  -3.2532  -3.2430  -3.2355  -3.2093  -3.2092  -3.2087
    -3.2078  -3.2069  -3.1970  -3.1807  -3.1669  -3.1664  -3.1541  -3.1520
    -3.1489  -3.1439  -3.1392  -3.1294  -3.1200  -3.0981  -3.0819  -3.0699
    -3.0537  -3.0436  -3.0345  -3.0042  -3.0036  -2.9709  -2.9698  -2.9632
    -2.9608  -2.9458  -2.9450  -2.9448  -2.9445  -2.9140  -2.9053  -2.8994
    -2.8951  -2.8795  -2.8752  -2.8673  -2.8587  -2.8571  -2.8508  -2.8459
    -2.8443  -2.8356  -2.8166  -2.8045  -2.8021  -2.7908  -2.7759  -2.7700
    -2.7614  -2.7492  -2.7457  -2.7397  -2.7331  -2.6955  -2.6741  -2.6508
    -2.6424  -2.6133  -2.5899  -2.5815  -2.5768  -2.5601  -2.5574  -2.5005
    -2.4960  -2.4569  -2.4515  -2.4271  -2.4182  -2.4119  -2.3856  -2.3473
    -2.3202  -2.2922  -2.2476

     the Fermi energy is    -4.5995 ev

!    total energy              =  -26031.79548069 Ry
     total all-electron energy =   -512284.365108 Ry
     estimated scf accuracy    <          7.3E-09 Ry
     smearing contrib. (-TS)   =      -0.00000002 Ry
     internal energy E=F+TS    =  -26031.79548067 Ry

     The total energy is F=E-TS. E is the sum of the following terms:
     one-electron contribution =  491288.08370628 Ry
     hartree contribution      = -245783.47935593 Ry
     xc contribution           =   -1534.67712270 Ry
     ewald contribution        = -253808.95853509 Ry
     DFT-D3 Dispersion         =      -4.02197830 Ry
     one-center paw contrib.   =  -16188.74219493 Ry

     convergence has been achieved in  11 iterations

     negative rho (up, down):  9.214E-04 0.000E+00

     Forces acting on atoms (cartesian axes, Ry/au):

     atom    1 type  1   force =    -0.00007942   -0.00008638   -0.00003389
     atom    2 type  1   force =    -0.00000020    0.00000136    0.00189957
     atom    3 type  1   force =    -0.00001444   -0.00001064   -0.00002409
     atom    4 type  2   force =     0.00000065   -0.00000035   -0.00327954
     atom    5 type  2   force =     0.00001803   -0.00000918    0.00002016
     atom    6 type  2   force =     0.00052633    0.00024131   -0.00018878
     atom    7 type  2   force =     0.00000033   -0.00000019    0.00149367
     atom    8 type  2   force =    -0.00001871    0.00000137   -0.00006126
     atom    9 type  2   force =    -0.00004436   -0.00005177   -0.00024268
     atom   10 type  1   force =     0.00004314    0.00051991    0.00017527
     atom   11 type  1   force =     0.00000132    0.00000084    0.00189601
     atom   12 type  1   force =     0.00000301    0.00002118    0.00001578
     atom   13 type  2   force =     0.00000016    0.00000032   -0.00327938
     atom   14 type  2   force =     0.00000257    0.00002737    0.00002053
     atom   15 type  2   force =    -0.00006582    0.00085928    0.00084418
     atom   16 type  2   force =    -0.00000031    0.00000312    0.00150741
     atom   17 type  2   force =    -0.00000112   -0.00001729   -0.00005750
     atom   18 type  2   force =    -0.00002546   -0.00016016    0.00016424
     atom   19 type  1   force =    -0.00000159    0.00000015    0.00019112
     atom   20 type  1   force =    -0.00000008   -0.00000019    0.00189848
     atom   21 type  1   force =     0.00000091    0.00000269    0.00001312
     atom   22 type  2   force =    -0.00000024    0.00000048   -0.00327954
     atom   23 type  2   force =    -0.00000087   -0.00000609    0.00004489
     atom   24 type  2   force =     0.00012755    0.00006238   -0.00045385
     atom   25 type  2   force =     0.00000049    0.00000299    0.00149161
     atom   26 type  2   force =     0.00000359    0.00002835   -0.00000486
     atom   27 type  2   force =    -0.00008665   -0.00004454   -0.00000742
     atom   28 type  1   force =     0.00054104   -0.00024321    0.00025223
     atom   29 type  1   force =     0.00000001   -0.00000012    0.00190228
     atom   30 type  1   force =     0.00001353   -0.00000649    0.00000921
     atom   31 type  2   force =     0.00000016   -0.00000026   -0.00327848
     atom   32 type  2   force =    -0.00000240    0.00000047    0.00004384
     atom   33 type  2   force =     0.00078900   -0.00045480    0.00081775
     atom   34 type  2   force =    -0.00000089   -0.00000392    0.00149510
     atom   35 type  2   force =     0.00001990   -0.00001299   -0.00001253
     atom   36 type  2   force =    -0.00008345    0.00004983    0.00002900
     atom   37 type  1   force =    -0.00002149    0.00010379   -0.00034534
     atom   38 type  1   force =    -0.00000008    0.00000071    0.00189855
     atom   39 type  1   force =    -0.00000828    0.00002470   -0.00001013
     atom   40 type  2   force =     0.00000029    0.00000006   -0.00327848
     atom   41 type  2   force =     0.00000475    0.00001377    0.00002093
     atom   42 type  2   force =    -0.00011461   -0.00037340    0.00025562
     atom   43 type  2   force =     0.00000301    0.00000289    0.00149509
     atom   44 type  2   force =    -0.00000526    0.00004649   -0.00007616
     atom   45 type  2   force =     0.00009173    0.00008710   -0.00026878
     atom   46 type  1   force =     0.00006453   -0.00003731   -0.00026266
     atom   47 type  1   force =    -0.00000080    0.00000162    0.00189645
     atom   48 type  1   force =     0.00002123   -0.00001914   -0.00001362
     atom   49 type  2   force =     0.00000055    0.00000006   -0.00327923
     atom   50 type  2   force =     0.00001962    0.00000981    0.00008181
     atom   51 type  2   force =    -0.00040590    0.00006718    0.00022519
     atom   52 type  2   force =    -0.00000454    0.00000505    0.00148724
     atom   53 type  2   force =    -0.00001247   -0.00000945    0.00004124
     atom   54 type  2   force =    -0.00007105   -0.00012038   -0.00027481
     atom   55 type  1   force =    -0.00042697   -0.00029751    0.00017442
     atom   56 type  1   force =     0.00000129   -0.00000096    0.00189494
     atom   57 type  1   force =     0.00000068   -0.00000122    0.00001369
     atom   58 type  2   force =     0.00000028    0.00000023   -0.00327893
     atom   59 type  2   force =     0.00001152   -0.00000644    0.00002071
     atom   60 type  2   force =    -0.00024635    0.00014294   -0.00051198
[...]
     atom  132 type  2   force =     0.00026549    0.00028536    0.00025650
     atom  133 type  2   force =    -0.00000572   -0.00000388    0.00150037
     atom  134 type  2   force =    -0.00004234   -0.00001810   -0.00007553
     atom  135 type  2   force =    -0.00002997   -0.00012222   -0.00026931
     atom  136 type  1   force =     0.00009197   -0.00005349   -0.00027371
     atom  137 type  1   force =    -0.00000145   -0.00000081    0.00189957
     atom  138 type  1   force =     0.00000225    0.00001653   -0.00002361
     atom  139 type  2   force =     0.00000025   -0.00000042   -0.00327921
     atom  140 type  2   force =     0.00001692   -0.00001127    0.00001912
     atom  141 type  2   force =     0.00005394   -0.00057836   -0.00018885
     atom  142 type  2   force =    -0.00000666    0.00000150    0.00148724
     atom  143 type  2   force =    -0.00001177    0.00001545   -0.00006088
     atom  144 type  2   force =     0.00002160    0.00006458   -0.00024173
     atom  145 type  3   force =     0.00011045   -0.00006372   -0.00044434
     atom  146 type  4   force =    -0.00002175    0.00001727   -0.00006738

     Total force =     0.003592     Total SCF correction =     0.000301
     Energy error            =      4.7E-05 Ry
     Gradient error          =      8.6E-04 Ry/Bohr

     bfgs converged in  17 scf cycles and  16 bfgs steps
     (criteria: energy <  1.0E-04 Ry, force <  1.0E-03 Ry/Bohr)

     End of BFGS Geometry Optimization

     Final energy             =  -26031.7954806929 Ry

     File ./outdir/pwscf.bfgs deleted, as requested
Begin final coordinates

ATOMIC_POSITIONS (angstrom)
Mo               1.5716424818        2.7182667071        6.0746189414
Mo               1.5769197498        0.9104407117       -6.0872367793    0   0   0
Mo               0.0003096066        1.8211573387       -0.0010665058
S                0.0000044503        0.0000077495       -7.6506323570    0   0   0
S                1.5769644276        0.9108476027       -1.5668561926
S               -0.0019337787        1.8201982757        4.5005677446
S                0.0000053241        0.0000068460       -4.5222282367    0   0   0
S                1.5770304259        0.9099766114        1.5654835712
S               -0.0099055147        1.8097093015        7.6416005680
Mo              -0.0086568072        5.4425005045        6.0938836623
Mo               0.0000011799        3.6417399547       -6.0872367793    0   0   0
Mo              -1.5766979248        4.5523876914       -0.0004036926
S               -1.5769141197        2.7313069925       -7.6506323570    0   0   0
S                0.0001974851        3.6421403621       -1.5659935059
S               -1.5744572112        4.5512637825        4.5058281945
S               -1.5769132459        2.7313060890       -4.5222282367    0   0   0
S                0.0008201185        3.6421314452        1.5670335688
S               -1.5935149812        4.5405454982        7.6481184798
Mo              -1.5778875357        8.1944363823        6.1382946612
Mo              -1.5769173901        6.3730391977       -6.0872367793    0   0   0
Mo              -3.1534838528        7.2835741344       -0.0016237585
S               -3.1538326896        5.4626062355       -7.6506323570    0   0   0
S               -1.5766623179        6.3726698468       -1.5666649708
S               -3.1302964002        7.2987634055        4.5596523271
S               -3.1538318159        5.4626053320       -4.5222282367    0   0   0
S               -1.5770553984        6.3736762688        1.5666581400
S               -3.2828024933        7.2080323231        7.7177470592
Mo               3.1404170655        0.0131023004        6.0835874890
Mo              -3.1538359601        9.1043384407       -6.0872367793    0   0   0
Mo              -4.7307315438       10.0147373954       -0.0018993259
S               -4.7307512596        8.1939054785       -7.6506323570    0   0   0
S               -3.1537546881        9.1042735868       -1.5673742675
S               -4.7305974221       10.0146507739        4.5074921104
S               -4.7307503859        8.1939045750       -4.5222282367    0   0   0
S               -3.1538074304        9.1043029510        1.5656624509
S               -4.7382715002       10.0190812378        7.6448839748
Mo               4.7365824929        2.7203927766        6.0806604404
Mo               4.7307503218        0.9104407117       -6.0872367793    0   0   0
Mo               3.1539618336        1.8207043661       -0.0009225411
S                3.1538350223        0.0000077495       -7.6506323570    0   0   0
S                4.7310076445        0.9105586750       -1.5663450461
S                3.1556541013        1.8206121283        4.5049227133
S                3.1538358961        0.0000068460       -4.5222282367    0   0   0
S                4.7302817668        0.9085895822        1.5666643299
S                3.1459276214        1.8325593998        7.6471481132
Mo               3.1529360257        5.4630960590        6.1360120915
Mo               3.1538317519        3.6417399547       -6.0872367793    0   0   0
Mo               1.5769910367        4.5526414065       -0.0003631916
S                1.5769164523        2.7313069925       -7.6506323570    0   0   0
S                3.1534759581        3.6417838684       -1.5664359835
S                1.5961323285        4.5651922746        4.5481357852
S                1.5769173261        2.7313060890       -4.5222282367    0   0   0
S                3.1539789478        3.6417684463        1.5663122731
S                1.4915206126        4.4770803602        7.7013980782
Mo               1.5899677211        8.2114134019        6.0938832840
Mo               1.5769131819        6.3730391977       -6.0872367793    0   0   0
Mo              -0.0002505326        7.2835951948       -0.0009308445
S               -0.0000021176        5.4626062355       -7.6506323570    0   0   0
S                1.5767767636        6.3730947548       -1.5660884187
S               -0.0204096314        7.2952222072        4.5681493057
[...]
S                6.3087720892        7.2819869672        4.5049206874
S                6.3076599001        5.4626053320       -4.5222282367    0   0   0
S                7.8859244809        6.3743358839        1.5666623373
S                6.2935588070        7.2844321501        7.6471477016
Mo              -0.0028991494        0.0016593599        6.0697691175
Mo               6.3076557559        9.1043384407       -6.0872367793    0   0   0
Mo               4.7306268221       10.0143328057       -0.0010656151
S                4.7307404564        8.1939054785       -7.6506323570    0   0   0
S                6.3073060841        9.1040625453       -1.5668535397
S                4.7303335075       10.0167545259        4.5005669537
S                4.7307413301        8.1939045750       -4.5222282367    0   0   0
S                6.3080954911        9.1044407385        1.5654830644
S                4.7354329857       10.0288952380        7.6415980078
Pd               3.1426097296        5.4690623747        9.0166996690
Pt              -1.5694447084        8.1895520977        8.8824312708
End final coordinates

     Writing all to output data dir ./outdir/pwscf.save/ :
     XML data file, charge density, pseudopotentials, collected wavefunctions

     General routines

     Parallel routines

   This run was terminated on:   5:18:51  12Mar2024

   JOB DONE.