     Program PWSCF v.7.2 starts on  3Nov2023 at 18:34:30

     Waiting for input...
     Reading input from standard input
Warning: card &CELL ignored
Warning: card / ignored

     Current dimensions of program PWSCF are:
     Max number of different atomic species (ntypx) = 10
     Max number of k-points (npk) =  40000
     Max angular momentum in pseudopotentials (lmaxx) =  4
     file Mo.pbe-spn-kjpaw_psl.1.0.0.UPF: wavefunction(s)  4S 4D renormalized
     file S.pbe-n-kjpaw_psl.1.0.0.UPF: wavefunction(s)  3S 3P renormalized
     file Pd.pbe-spn-kjpaw_psl.1.0.0.UPF: wavefunction(s)  4S 5S 4D renormalized

     R & G space division:  proc/nbgrp/npool/nimage =      36
     Subspace diagonalization in iterative solution of the eigenvalue problem:
     one sub-group per band group will be used

     Using Slab Decomposition

     bravais-lattice index     =            0
     lattice parameter (alat)  =      23.8199  a.u.
     unit-cell volume          =   33861.0370 (a.u.)^3
     number of atoms/cell      =          195
     number of atomic types    =            3
     number of electrons       =      1718.00
     number of Kohn-Sham states=         1031
     kinetic-energy cutoff     =      77.0000  Ry
     charge density cutoff     =     539.0000  Ry
     scf convergence threshold =      1.0E-06
     mixing beta               =       0.2000
     number of iterations used =            8  plain     mixing
     energy convergence thresh.=      1.0E-04
     force convergence thresh. =      1.0E-03
     Exchange-correlation= SLA  PW   PBX  PBC
                           (   1   4   3   4   0   0   0)
     nstep                     =         1000

     Effective Screening Medium Method
     Boundary Conditions: Vacuum-Slab-Vacuum
     total charge in unit cell        =   0.0000
     grid points for fit at edges     =        4

     celldm(1)=  23.819920  celldm(2)=   0.000000  celldm(3)=   0.000000
     celldm(4)=   0.000000  celldm(5)=   0.000000  celldm(6)=   0.000000

     crystal axes: (cart. coord. in units of alat)
               a(1) = (   1.000000   0.000000   0.000000 )
               a(2) = (  -0.499999   0.866026   0.000000 )
               a(3) = (   0.000000   0.000000   2.893000 )

     reciprocal axes: (cart. coord. in units 2 pi/alat)
               b(1) = (  1.000000  0.577349  0.000000 )
               b(2) = (  0.000000  1.154700  0.000000 )
               b(3) = (  0.000000  0.000000  0.345662 )

     PseudoPot. # 1 for Mo read from file:
     ./pseudo/Mo.pbe-spn-kjpaw_psl.1.0.0.UPF
     MD5 check sum: 317bf72632116215fd98f72de1686f13
     Pseudo is Projector augmented-wave + core cor, Zval = 14.0
     Generated using 'atomic' code by A. Dal Corso  v.7.2
     Shape of augmentation charge: PSQ
     Using radial grid of 1229 points,  6 beta functions with:
                l(1) =   0
                l(2) =   0
                l(3) =   1
                l(4) =   1
                l(5) =   2
                l(6) =   2
     Q(r) pseudized with 0 coefficients

     PseudoPot. # 2 for S  read from file:
     ./pseudo/S.pbe-n-kjpaw_psl.1.0.0.UPF
     MD5 check sum: 8b7b5302570d38d5e87fed6a1065abda
     Pseudo is Projector augmented-wave + core cor, Zval =  6.0
     Generated using 'atomic' code by A. Dal Corso  v.7.2
     Shape of augmentation charge: PSQ
     Using radial grid of 1151 points,  6 beta functions with:
                l(1) =   0
                l(2) =   0
                l(3) =   1
                l(4) =   1
                l(5) =   2
                l(6) =   2
     Q(r) pseudized with 0 coefficients

     PseudoPot. # 3 for Pd read from file:
     ./pseudo/Pd.pbe-spn-kjpaw_psl.1.0.0.UPF
     MD5 check sum: a60571a671f2502b8a6a4569d20a6edb
     Pseudo is Projector augmented-wave + core cor, Zval = 18.0
     Generated using 'atomic' code by A. Dal Corso  v.7.2
     Shape of augmentation charge: PSQ
     Using radial grid of 1235 points,  6 beta functions with:
                l(1) =   0
                l(2) =   0
                l(3) =   1
                l(4) =   1
                l(5) =   2
                l(6) =   2
     Q(r) pseudized with 0 coefficients

     atomic species   valence    mass     pseudopotential
        Mo            14.00    95.95000     Mo( 1.00)
        S              6.00    32.06000     S ( 1.00)
        Pd            18.00   106.42000     Pd( 1.00)

     No symmetry found

   Cartesian axes

     site n.     atom                  positions (alat units)
         1           Mo  tau(   1) = (   0.0000010   0.1443372  -0.7272732  )
         2           Mo  tau(   2) = (   0.1249995   0.0721706  -0.2424038  )
         3           S   tau(   3) = (   0.0000015   0.1443386  -0.3667807  )
         4           S   tau(   4) = (   0.1250010   0.0721682  -0.6030489  )
         5           S   tau(   5) = (   0.1250010   0.0721683  -0.8514963  )
         6           S   tau(   6) = (   0.0000015   0.1443389  -0.1180260  )
         7           Mo  tau(   7) = (   0.0000222   0.1444187   0.2425595  )
         8           Mo  tau(   8) = (   0.1245966   0.0727010   0.7278826  )
         9           S   tau(   9) = (   0.0000166   0.1448419   0.6020343  )
        10           S   tau(  10) = (   0.1250561   0.0722903   0.3669179  )
        11           S   tau(  11) = (   0.1250140   0.0722444   0.1181576  )
        12           S   tau(  12) = (  -0.0013476   0.1442175   0.8515296  )
        13           Mo  tau(  13) = (  -0.1249989   0.3608437  -0.7272732  )
        14           Mo  tau(  14) = (   0.0000030   0.2886752  -0.2424042  )
        15           S   tau(  15) = (  -0.1249977   0.3608450  -0.3667802  )
        16           S   tau(  16) = (   0.0000012   0.2886747  -0.6030489  )
        17           S   tau(  17) = (   0.0000012   0.2886748  -0.8514963  )
        18           S   tau(  18) = (  -0.1249977   0.3608454  -0.1180274  )
        19           Mo  tau(  19) = (  -0.1249777   0.3609089   0.2425603  )
        20           Mo  tau(  20) = (  -0.0029637   0.2882853   0.7270120  )
        21           S   tau(  21) = (  -0.1256983   0.3625185   0.6019747  )
        22           S   tau(  22) = (   0.0000591   0.2887797   0.3669668  )
        23           S   tau(  23) = (   0.0000075   0.2887346   0.1181682  )
        24           S   tau(  24) = (  -0.1270233   0.3617098   0.8514678  )
        25           Mo  tau(  25) = (  -0.2499987   0.5773502  -0.7272732  )
        26           Mo  tau(  26) = (  -0.1249977   0.5051839  -0.2424055  )
        27           S   tau(  27) = (  -0.2499981   0.5773518  -0.3667809  )
        28           S   tau(  28) = (  -0.1249986   0.5051812  -0.6030489  )
        29           S   tau(  29) = (  -0.1249986   0.5051813  -0.8514963  )
        30           S   tau(  30) = (  -0.2499979   0.5773512  -0.1180266  )
        31           Mo  tau(  31) = (  -0.2499821   0.5774144   0.2425369  )
        32           Mo  tau(  32) = (  -0.1258229   0.5064885   0.7278520  )
        33           S   tau(  33) = (  -0.2493952   0.5788088   0.6023234  )
        34           S   tau(  34) = (  -0.1249462   0.5052707   0.3669162  )
        35           S   tau(  35) = (  -0.1249880   0.5052329   0.1181602  )
        36           S   tau(  36) = (  -0.2509230   0.5788413   0.8515814  )
        37           Mo  tau(  37) = (  -0.3749985   0.7938567  -0.7272732  )
        38           Mo  tau(  38) = (  -0.2500001   0.7216874  -0.2424031  )
        39           S   tau(  39) = (  -0.3749980   0.7938584  -0.3667800  )
        40           S   tau(  40) = (  -0.2499984   0.7216877  -0.6030489  )
        41           S   tau(  41) = (  -0.2499984   0.7216878  -0.8514963  )
        42           S   tau(  42) = (  -0.3749982   0.7938585  -0.1180264  )
        43           Mo  tau(  43) = (  -0.3749910   0.7939458   0.2425394  )
        44           Mo  tau(  44) = (  -0.2499391   0.7230231   0.7269923  )
        45           S   tau(  45) = (  -0.3746478   0.7955125   0.6023635  )
        46           S   tau(  46) = (  -0.2500018   0.7217675   0.3668983  )
        47           S   tau(  47) = (  -0.2499845   0.7217593   0.1181709  )
        48           S   tau(  48) = (  -0.3753625   0.7942039   0.8516391  )
        49           Mo  tau(  49) = (   0.2500010   0.1443372  -0.7272732  )
        50           Mo  tau(  50) = (   0.3750034   0.0721723  -0.2424032  )
        51           S   tau(  51) = (   0.2500017   0.1443391  -0.3667788  )
        52           S   tau(  52) = (   0.3750010   0.0721682  -0.6030489  )
        53           S   tau(  53) = (   0.3750010   0.0721683  -0.8514963  )
        54           S   tau(  54) = (   0.2500016   0.1443391  -0.1180271  )
        55           Mo  tau(  55) = (   0.2500120   0.1444423   0.2425270  )
        56           Mo  tau(  56) = (   0.3753385   0.0727176   0.7280385  )
        57           S   tau(  57) = (   0.2501061   0.1471948   0.6059873  )
        58           S   tau(  58) = (   0.3749665   0.0722824   0.3669588  )
        59           S   tau(  59) = (   0.3750194   0.0722259   0.1181828  )
        60           S   tau(  60) = (   0.2503224   0.1381707   0.8567863  )
[...]
       181           Mo  tau( 181) = (   0.3750016   0.7938567  -0.7272732  )
       182           Mo  tau( 182) = (   0.5000025   0.7216901  -0.2424039  )
       183           S   tau( 183) = (   0.3750019   0.7938578  -0.3667793  )
       184           S   tau( 184) = (   0.5000016   0.7216877  -0.6030489  )
       185           S   tau( 185) = (   0.5000016   0.7216878  -0.8514963  )
       186           S   tau( 186) = (   0.3750020   0.7938579  -0.1180272  )
       187           Mo  tau( 187) = (   0.3749890   0.7939067   0.2425443  )
       188           Mo  tau( 188) = (   0.5002702   0.7230996   0.7264112  )
       189           S   tau( 189) = (   0.3747820   0.7948530   0.6019718  )
       190           S   tau( 190) = (   0.5000014   0.7217825   0.3669010  )
       191           S   tau( 191) = (   0.5000049   0.7217309   0.1181759  )
       192           S   tau( 192) = (   0.3757788   0.7958654   0.8513800  )
       193           Pd  tau( 193) = (   0.1298567   0.5028633   0.9631584  )
       194           Pd  tau( 194) = (   0.2489715   0.2959876   0.9631435  )
       195           Pd  tau( 195) = (  -0.0004760   0.7235248   0.9726860  )

     DFT-D3 Dispersion Correction (3-body terms):
       Reference C6 values for interpolation:

         atom   Coordination number   C6
         S          0.000           268.01
         S          0.995           261.99
         S          1.990           251.62
         Mo         0.000          1691.79
         Mo         1.942          1004.01
         Mo        11.056           674.22
         Pd         0.000          1217.01
         Pd         1.863           573.90
         Pd         5.710           531.75

       Values used:

         atom   Coordination number  R0_AB[au]  C6      C8
         Mo        10.208            3.547    674.22  77634.20
         Mo        10.221            3.547    674.22  77634.20
         S          3.858            3.128    251.62  12327.25
         S          3.859            3.128    251.62  12327.25
[...]
     atom   15 type  2   force =     0.00000000    0.00000000    0.00000000
     atom   16 type  2   force =     0.00000000    0.00000000    0.00000000
     atom   17 type  2   force =     0.00000000    0.00000000    0.00000000
     atom   18 type  2   force =     0.00000000    0.00000000    0.00000000
     atom   19 type  1   force =     0.00000164    0.00000579    0.00001719
     atom   20 type  1   force =     0.00001629    0.00000679   -0.00002089
     atom   21 type  2   force =     0.00000353    0.00000176   -0.00000215
     atom   22 type  2   force =     0.00000157    0.00000146    0.00000377
     atom   23 type  2   force =     0.00000004    0.00000035    0.00000294
     atom   24 type  2   force =     0.00000252    0.00000577   -0.00000253
     atom   25 type  1   force =     0.00000000    0.00000000    0.00000000
     atom   26 type  1   force =     0.00000000    0.00000000    0.00000000
     atom   27 type  2   force =     0.00000000    0.00000000    0.00000000
     atom   28 type  2   force =     0.00000000    0.00000000    0.00000000
     atom   29 type  2   force =     0.00000000    0.00000000    0.00000000
     atom   30 type  2   force =     0.00000000    0.00000000    0.00000000
     atom   31 type  1   force =     0.00000359   -0.00000026    0.00002312
     atom   32 type  1   force =     0.00002823    0.00001978    0.00001832
     atom   33 type  2   force =     0.00000217    0.00000036   -0.00000399
     atom   34 type  2   force =     0.00000091   -0.00000031    0.00000438
     atom   35 type  2   force =     0.00000240   -0.00000054    0.00000441
     atom   36 type  2   force =     0.00000653    0.00000122    0.00000132
     atom   37 type  1   force =     0.00000000    0.00000000    0.00000000
     atom   38 type  1   force =     0.00000000    0.00000000    0.00000000
     atom   39 type  2   force =     0.00000000    0.00000000    0.00000000
     atom   40 type  2   force =     0.00000000    0.00000000    0.00000000
     atom   41 type  2   force =     0.00000000    0.00000000    0.00000000
     atom   42 type  2   force =     0.00000000    0.00000000    0.00000000
     atom   43 type  1   force =     0.00000106   -0.00000614    0.00001195
     atom   44 type  1   force =     0.00001179   -0.00000657   -0.00001225
     atom   45 type  2   force =     0.00000412    0.00000035   -0.00000309
     atom   46 type  2   force =     0.00000299   -0.00000295    0.00000139
     atom   47 type  2   force =     0.00000065   -0.00000147    0.00000528
     atom   48 type  2   force =     0.00000065    0.00000246    0.00000013
     atom   49 type  1   force =     0.00000000    0.00000000    0.00000000
     atom   50 type  1   force =     0.00000000    0.00000000    0.00000000
     atom   51 type  2   force =     0.00000000    0.00000000    0.00000000
     atom   52 type  2   force =     0.00000000    0.00000000    0.00000000
     atom   53 type  2   force =     0.00000000    0.00000000    0.00000000
     atom   54 type  2   force =     0.00000000    0.00000000    0.00000000
     atom   55 type  1   force =    -0.00000074   -0.00000430    0.00001699
     atom   56 type  1   force =    -0.00000545    0.00000957    0.00000012
     atom   57 type  2   force =     0.00000062    0.00000259    0.00000240
     atom   58 type  2   force =     0.00000004   -0.00000322    0.00000490
     atom   59 type  2   force =     0.00000139   -0.00000352    0.00000388
     atom   60 type  2   force =     0.00000265    0.00000708    0.00000275
[...]
     atom  181 type  1   force =     0.00000000    0.00000000    0.00000000
     atom  182 type  1   force =     0.00000000    0.00000000    0.00000000
     atom  183 type  2   force =     0.00000000    0.00000000    0.00000000
     atom  184 type  2   force =     0.00000000    0.00000000    0.00000000
     atom  185 type  2   force =     0.00000000    0.00000000    0.00000000
     atom  186 type  2   force =     0.00000000    0.00000000    0.00000000
     atom  187 type  1   force =    -0.00000345   -0.00000307    0.00000978
     atom  188 type  1   force =     0.00000540   -0.00000496    0.00000754
     atom  189 type  2   force =    -0.00000288    0.00000266   -0.00000422
     atom  190 type  2   force =    -0.00000164   -0.00000382    0.00000219
     atom  191 type  2   force =    -0.00000129    0.00000030    0.00000317
     atom  192 type  2   force =    -0.00000603   -0.00000392    0.00000354
     atom  193 type  3   force =     0.00013128   -0.00010667    0.00003267
     atom  194 type  3   force =     0.00002211    0.00001645    0.00003658
     atom  195 type  3   force =     0.00001795    0.00012422   -0.00002330

     DFT-D3 dispersion contribution to forces:
     atom    1 type  1   force =     0.00000003    0.00000005    0.00255971
     atom    2 type  1   force =     0.00000008   -0.00000001    0.00000959
     atom    3 type  2   force =    -0.00000000   -0.00000000   -0.00003389
     atom    4 type  2   force =    -0.00000002   -0.00000000    0.00017171
     atom    5 type  2   force =    -0.00000004   -0.00000001    0.00441406
     atom    6 type  2   force =     0.00000016    0.00000017    0.00009523
     atom    7 type  1   force =    -0.00001874   -0.00000813    0.00000323
     atom    8 type  1   force =     0.00022826    0.00034789   -0.00199764
     atom    9 type  2   force =     0.00001092    0.00003541   -0.00002059
     atom   10 type  2   force =    -0.00002554   -0.00001519    0.00003701
     atom   11 type  2   force =    -0.00000073   -0.00000064   -0.00009612
     atom   12 type  2   force =     0.00055159    0.00052401   -0.00408231
     atom   13 type  1   force =     0.00000006    0.00000003    0.00255966
     atom   14 type  1   force =     0.00000008   -0.00000008    0.00000941
     atom   15 type  2   force =     0.00000000   -0.00000001   -0.00003396
     atom   16 type  2   force =     0.00000000   -0.00000001    0.00017174
     atom   17 type  2   force =    -0.00000001   -0.00000004    0.00441398
     atom   18 type  2   force =     0.00000004    0.00000012    0.00009502
     atom   19 type  1   force =    -0.00002113   -0.00001282    0.00000187
     atom   20 type  1   force =     0.00048672    0.00038521   -0.00166537
     atom   21 type  2   force =     0.00004532    0.00002064    0.00002118
     atom   22 type  2   force =    -0.00002901   -0.00002304    0.00003424
     atom   23 type  2   force =    -0.00000065   -0.00000107   -0.00009605
     atom   24 type  2   force =     0.00083843    0.00048469   -0.00396131
     atom   25 type  1   force =     0.00000006   -0.00000000    0.00255970
     atom   26 type  1   force =     0.00000002    0.00000002    0.00000936
     atom   27 type  2   force =    -0.00000001   -0.00000002   -0.00003390
     atom   28 type  2   force =    -0.00000001    0.00000000    0.00017173
     atom   29 type  2   force =    -0.00000004    0.00000001    0.00441398
     atom   30 type  2   force =     0.00000017    0.00000021    0.00009514
     atom   31 type  1   force =    -0.00001682   -0.00001315    0.00000213
     atom   32 type  1   force =     0.00057947    0.00022793   -0.00166843
     atom   33 type  2   force =     0.00003334   -0.00000863   -0.00002176
     atom   34 type  2   force =    -0.00003470   -0.00001274    0.00003430
     atom   35 type  2   force =    -0.00000104   -0.00000052   -0.00009640
     atom   36 type  2   force =     0.00072949    0.00021504   -0.00408543
     atom   37 type  1   force =     0.00000003    0.00000002    0.00255966
     atom   38 type  1   force =     0.00000002    0.00000006    0.00000959
     atom   39 type  2   force =    -0.00000000    0.00000001   -0.00003392
     atom   40 type  2   force =    -0.00000002   -0.00000002    0.00017171
     atom   41 type  2   force =    -0.00000003   -0.00000003    0.00441406
     atom   42 type  2   force =     0.00000017    0.00000020    0.00009525
     atom   43 type  1   force =    -0.00001660   -0.00000894    0.00000226
     atom   44 type  1   force =     0.00041419    0.00002502   -0.00200034
     atom   45 type  2   force =    -0.00001582   -0.00000915   -0.00007403
     atom   46 type  2   force =    -0.00002774   -0.00001190    0.00003735
     atom   47 type  2   force =    -0.00000081   -0.00000046   -0.00009643
     atom   48 type  2   force =     0.00034342    0.00019827   -0.00423728
     atom   49 type  1   force =     0.00000002    0.00000006    0.00255968
     atom   50 type  1   force =    -0.00000004   -0.00000002    0.00000976
     atom   51 type  2   force =    -0.00000004   -0.00000000   -0.00003392
     atom   52 type  2   force =     0.00000001    0.00000001    0.00017176
     atom   53 type  2   force =     0.00000003    0.00000001    0.00441397
     atom   54 type  2   force =     0.00000014    0.00000001    0.00009540
     atom   55 type  1   force =    -0.00000499   -0.00000422   -0.00003693
     atom   56 type  1   force =     0.00001301    0.00000838   -0.00173447
     atom   57 type  2   force =    -0.00002968    0.00006166    0.00023239
     atom   58 type  2   force =    -0.00000784   -0.00000247    0.00003802
     atom   59 type  2   force =    -0.00000080   -0.00000055   -0.00009967
     atom   60 type  2   force =     0.00010621    0.00020706   -0.00422543
[...]
     atom  181 type  1   force =    -0.00000007   -0.00000003    0.00255965
     atom  182 type  1   force =     0.00000003   -0.00000000    0.00000931
     atom  183 type  2   force =     0.00000002   -0.00000000   -0.00003398
     atom  184 type  2   force =     0.00000000    0.00000000    0.00017175
     atom  185 type  2   force =     0.00000002    0.00000001    0.00441411
     atom  186 type  2   force =     0.00000001    0.00000009    0.00009508
     atom  187 type  1   force =     0.00000991    0.00000775    0.00000922
     atom  188 type  1   force =    -0.00008712   -0.00004936   -0.00229953
     atom  189 type  2   force =    -0.00000431    0.00001176   -0.00007239
     atom  190 type  2   force =     0.00001106    0.00000809    0.00005260
     atom  191 type  2   force =     0.00000081    0.00000025   -0.00009156
     atom  192 type  2   force =    -0.00045510   -0.00029083   -0.00418922
     atom  193 type  3   force =     0.00002811   -0.00000243   -0.00629159
     atom  194 type  3   force =    -0.00010563    0.00016521   -0.00623880
     atom  195 type  3   force =     0.00008553   -0.00016237   -0.00619779

     Total force =     0.002505     Total SCF correction =     0.000259
     SCF correction compared to forces is large: reduce conv_thr to get better values
     Energy error            =      1.1E-05 Ry
     Gradient error          =      8.3E-04 Ry/Bohr

     bfgs converged in  22 scf cycles and  21 bfgs steps
     (criteria: energy <  1.0E-04 Ry, force <  1.0E-03 Ry/Bohr)

     End of BFGS Geometry Optimization

     Final energy             =  -33329.5759225078 Ry

     File ./outdir/pwscf.bfgs deleted, as requested
Begin final coordinates

ATOMIC_POSITIONS (angstrom)
Mo            0.0000119917        1.8193638619       -9.1672481230    0   0   0
Mo            1.5756136568        0.9097075315       -3.0554901653    0   0   0
S             0.0000188998        1.8193822938       -4.6232556019    0   0   0
S             1.5756321638        0.9096773839       -7.6014065489    0   0   0
S             1.5756326175        0.9096785128      -10.7330757790    0   0   0
S             0.0000189190        1.8193860094       -1.4877129945    0   0   0
Mo            0.0001425063        1.8213719990        3.0583299659
Mo            1.5712134894        0.9185284372        9.1739032012
S             0.0043358751        1.8236234463        7.5824206395
S             1.5762926132        0.9121008484        4.6259169350
S             1.5757254959        0.9115957549        1.4904040637
S            -0.0163962613        1.8254812320       10.7258559689
Mo           -1.5756053507        4.5484193819       -9.1672481230    0   0   0
Mo            0.0000378379        3.6387394919       -3.0554952701    0   0   0
S            -1.5755913433        4.5484363582       -4.6232494962    0   0   0
S             0.0000148214        3.6387329039       -7.6014065489    0   0   0
S             0.0000152751        3.6387340328      -10.7330757790    0   0   0
S            -1.5755906502        4.5484413613       -1.4877305502    0   0   0
Mo           -1.5756059574        4.5503502107        3.0585729500
Mo           -0.0312010531        3.6360137228        9.1528203198
S            -1.5857346082        4.5608778762        7.5675999720
S             0.0005739853        3.6409319758        4.6262020119
S             0.0000226998        3.6407228657        1.4906362826
S            -1.6070472576        4.5446655584       10.7178293579
Mo           -3.1512226931        7.2774749019       -9.1672481230    0   0   0
Mo           -1.5755910988        6.3678216792       -3.0555115988    0   0   0
S            -3.1512162438        7.2774954350       -4.6232578178    0   0   0
S            -1.5756025210        6.3677884239       -7.6014065489    0   0   0
S            -1.5756020673        6.3677895528      -10.7330757790    0   0   0
S            -3.1512127704        7.2774877076       -1.4877200710    0   0   0
Mo           -3.1511232673        7.2795677536        3.0583318537
Mo           -1.6064553994        6.3660917180        9.1564000758
S            -3.1573856345        7.3016875299        7.5846888702
S            -1.5752489426        6.3702359982        4.6261218353
S            -1.5754783871        6.3696053346        1.4906693828
S            -3.1689425025        7.2834883975       10.7274564400
Mo           -4.7268400355       10.0065304219       -9.1672481230    0   0   0
Mo           -3.1512405618        9.0968403586       -3.0554816746    0   0   0
S            -4.7268341792       10.0065523623       -4.6232463762    0   0   0
S            -3.1512198634        9.0968439439       -7.6014065489    0   0   0
S            -3.1512194097        9.0968450728      -10.7330757790    0   0   0
S            -4.7268370797       10.0065537885       -1.4877176751    0   0   0
Mo           -4.7266062177       10.0086458327        3.0582674343
Mo           -3.1595226886        9.1115783272        9.1755641750
S            -4.7152916230       10.0279696110        7.5920014658
S            -3.1505908396        9.0993299683        4.6259243000
S            -3.1510713912        9.0987426098        1.4904058223
S            -4.7429532779       10.0133255377       10.7372971009
Mo            3.1512517547        1.8193638619       -9.1672481230    0   0   0
Mo            4.7269020221        0.9097289540       -3.0554823951    0   0   0
S             3.1512612351        1.8193882564       -4.6232320683    0   0   0
S             4.7268719268        0.9096773839       -7.6014065489    0   0   0
S             4.7268723805        0.9096785128      -10.7330757790    0   0   0
S             3.1512592485        1.8193890201       -1.4877261251    0   0   0
Mo            3.1513678342        1.8215108036        3.0582203916
Mo            4.7250537727        0.9238003212        9.1956392053
S             3.1585880418        1.8544752738        7.6412502378
S             4.7262273889        0.9113720971        4.6269850654
S             4.7269306547        0.9115200616        1.4905690299
S             3.1425515134        1.7585629266       10.8053457749
[...]
Mo            4.7268792535       10.0065304219       -9.1672481230    0   0   0
Mo            6.3025111524        9.0968738021       -3.0554915260    0   0   0
S             4.7268840634       10.0065452125       -4.6232380477    0   0   0
S             6.3024994256        9.0968439439       -7.6014065489    0   0   0
S             6.3024998793        9.0968450728      -10.7330757790    0   0   0
S             4.7268847312       10.0065459141       -1.4877283294    0   0   0
Mo            4.7265666160       10.0082724979        3.0585033824
Mo            6.3078716536        9.1153023071        9.1501290598
S             4.7273961490       10.0192447761        7.5805762993
S             6.3026463366        9.0989645204        4.6257057300
S             6.3023534001        9.0987258698        1.4906308520
S             4.7518640263       10.0338202626       10.7284561789
Pd            1.6134125597        6.3953677469       12.2141653348
Pd            3.1309436802        3.7540152724       12.1400559457
Pd            0.0796655901        9.0438546668       12.1439844648
End final coordinates

     Writing all to output data dir ./outdir/pwscf.save/

     General routines

     Parallel routines

   This run was terminated on:   1:43:12   6Nov2023

   JOB DONE.
Application 11372283 resources: utime ~7072777s, stime ~73670s, Rss ~3517212, inblocks ~0, outblocks ~59272784