     Program PWSCF v.7.2 starts on 20Aug2023 at 17:47:32

     Waiting for input...
     Reading input from standard input
Warning: card &CELL ignored
Warning: card / ignored

     Current dimensions of program PWSCF are:
     Max number of different atomic species (ntypx) = 10
     Max number of k-points (npk) =  40000
     Max angular momentum in pseudopotentials (lmaxx) =  4
     file Mo.pbe-spn-kjpaw_psl.1.0.0.UPF: wavefunction(s)  4S 4D renormalized
     file S.pbe-n-kjpaw_psl.1.0.0.UPF: wavefunction(s)  3S 3P renormalized
     file H.pbe-kjpaw_psl.1.0.0.UPF: wavefunction(s)  1S renormalized

     R & G space division:  proc/nbgrp/npool/nimage =      36
     Subspace diagonalization in iterative solution of the eigenvalue problem:
     one sub-group per band group will be used

     Using Slab Decomposition

     bravais-lattice index     =            0
     lattice parameter (alat)  =      23.8199  a.u.
     unit-cell volume          =   33861.0370 (a.u.)^3
     number of atoms/cell      =          193
     number of atomic types    =            3
     number of electrons       =      1665.00
     number of Kohn-Sham states=         1000
     kinetic-energy cutoff     =      77.0000  Ry
     charge density cutoff     =     539.0000  Ry
     scf convergence threshold =      1.0E-06
     mixing beta               =       0.2000
     number of iterations used =            8  plain     mixing
     energy convergence thresh.=      1.0E-04
     force convergence thresh. =      1.0E-03
     Exchange-correlation= SLA  PW   PBX  PBC
                           (   1   4   3   4   0   0   0)
     nstep                     =         1000

     Effective Screening Medium Method
     Boundary Conditions: Vacuum-Slab-Vacuum
     total charge in unit cell        =   0.0000
     grid points for fit at edges     =        4

     celldm(1)=  23.819920  celldm(2)=   0.000000  celldm(3)=   0.000000
     celldm(4)=   0.000000  celldm(5)=   0.000000  celldm(6)=   0.000000

     crystal axes: (cart. coord. in units of alat)
               a(1) = (   1.000000   0.000000   0.000000 )
               a(2) = (  -0.499999   0.866026   0.000000 )
               a(3) = (   0.000000   0.000000   2.893000 )

     reciprocal axes: (cart. coord. in units 2 pi/alat)
               b(1) = (  1.000000  0.577349  0.000000 )
               b(2) = (  0.000000  1.154700  0.000000 )
               b(3) = (  0.000000  0.000000  0.345662 )

     PseudoPot. # 1 for Mo read from file:
     ./pseudo/Mo.pbe-spn-kjpaw_psl.1.0.0.UPF
     MD5 check sum: 317bf72632116215fd98f72de1686f13
     Pseudo is Projector augmented-wave + core cor, Zval = 14.0
     Generated using 'atomic' code by A. Dal Corso  v.7.2
     Shape of augmentation charge: PSQ
     Using radial grid of 1229 points,  6 beta functions with:
                l(1) =   0
                l(2) =   0
                l(3) =   1
                l(4) =   1
                l(5) =   2
                l(6) =   2
     Q(r) pseudized with 0 coefficients

     PseudoPot. # 2 for S  read from file:
     ./pseudo/S.pbe-n-kjpaw_psl.1.0.0.UPF
     MD5 check sum: 8b7b5302570d38d5e87fed6a1065abda
     Pseudo is Projector augmented-wave + core cor, Zval =  6.0
     Generated using 'atomic' code by A. Dal Corso  v.7.2
     Shape of augmentation charge: PSQ
     Using radial grid of 1151 points,  6 beta functions with:
                l(1) =   0
                l(2) =   0
                l(3) =   1
                l(4) =   1
                l(5) =   2
                l(6) =   2
     Q(r) pseudized with 0 coefficients

     PseudoPot. # 3 for H  read from file:
     ./pseudo/H.pbe-kjpaw_psl.1.0.0.UPF
     MD5 check sum: b3cb3c48ee3b58cc53e4d592112d0ca6
     Pseudo is Projector augmented-wave, Zval =  1.0
     Generated using 'atomic' code by A. Dal Corso  v.7.2
     Shape of augmentation charge: PSQ
     Using radial grid of  929 points,  2 beta functions with:
                l(1) =   0
                l(2) =   0
     Q(r) pseudized with 0 coefficients

     atomic species   valence    mass     pseudopotential
        Mo            14.00    95.95000     Mo( 1.00)
        S              6.00    32.06000     S ( 1.00)
        H              1.00     1.00800     H ( 1.00)

     No symmetry found

   Cartesian axes

     site n.     atom                  positions (alat units)
         1           Mo  tau(   1) = (   0.0000010   0.1443372  -0.7272732  )
         2           Mo  tau(   2) = (   0.1249995   0.0721706  -0.2424038  )
         3           S   tau(   3) = (   0.0000015   0.1443386  -0.3667807  )
         4           S   tau(   4) = (   0.1250010   0.0721682  -0.6030489  )
         5           S   tau(   5) = (   0.1250010   0.0721683  -0.8514963  )
         6           S   tau(   6) = (   0.0000015   0.1443389  -0.1180260  )
         7           Mo  tau(   7) = (   0.0000041   0.1443345   0.2424023  )
         8           Mo  tau(   8) = (   0.1250030   0.0721700   0.7272501  )
         9           S   tau(   9) = (   0.0000038   0.1443392   0.6028599  )
        10           S   tau(  10) = (   0.1250037   0.0721683   0.3667755  )
        11           S   tau(  11) = (   0.1250033   0.0721688   0.1180247  )
        12           S   tau(  12) = (   0.0000038   0.1443391   0.8517304  )
        13           Mo  tau(  13) = (  -0.1249989   0.3608437  -0.7272732  )
        14           Mo  tau(  14) = (   0.0000030   0.2886752  -0.2424042  )
        15           S   tau(  15) = (  -0.1249977   0.3608450  -0.3667802  )
        16           S   tau(  16) = (   0.0000012   0.2886747  -0.6030489  )
        17           S   tau(  17) = (   0.0000012   0.2886748  -0.8514963  )
        18           S   tau(  18) = (  -0.1249977   0.3608454  -0.1180274  )
        19           Mo  tau(  19) = (  -0.1249981   0.3608444   0.2424011  )
        20           Mo  tau(  20) = (   0.0000038   0.2886765   0.7272499  )
        21           S   tau(  21) = (  -0.1249961   0.3608457   0.6028596  )
        22           S   tau(  22) = (   0.0000037   0.2886752   0.3667739  )
        23           S   tau(  23) = (   0.0000035   0.2886747   0.1180263  )
        24           S   tau(  24) = (  -0.1249962   0.3608459   0.8517305  )
        25           Mo  tau(  25) = (  -0.2499987   0.5773502  -0.7272732  )
        26           Mo  tau(  26) = (  -0.1249977   0.5051839  -0.2424055  )
        27           S   tau(  27) = (  -0.2499981   0.5773518  -0.3667809  )
        28           S   tau(  28) = (  -0.1249986   0.5051812  -0.6030489  )
        29           S   tau(  29) = (  -0.1249986   0.5051813  -0.8514963  )
        30           S   tau(  30) = (  -0.2499979   0.5773512  -0.1180266  )
        31           Mo  tau(  31) = (  -0.2499983   0.5773503   0.2424020  )
        32           Mo  tau(  32) = (  -0.1249962   0.5051830   0.7272501  )
        33           S   tau(  33) = (  -0.2499958   0.5773522   0.6028593  )
        34           S   tau(  34) = (  -0.1249963   0.5051821   0.3667746  )
        35           S   tau(  35) = (  -0.1249968   0.5051820   0.1180254  )
        36           S   tau(  36) = (  -0.2499959   0.5773522   0.8517307  )
        37           Mo  tau(  37) = (  -0.3749985   0.7938567  -0.7272732  )
        38           Mo  tau(  38) = (  -0.2500001   0.7216874  -0.2424031  )
        39           S   tau(  39) = (  -0.3749980   0.7938584  -0.3667800  )
        40           S   tau(  40) = (  -0.2499984   0.7216877  -0.6030489  )
        41           S   tau(  41) = (  -0.2499984   0.7216878  -0.8514963  )
        42           S   tau(  42) = (  -0.3749982   0.7938585  -0.1180264  )
        43           Mo  tau(  43) = (  -0.3749976   0.7938584   0.2424002  )
        44           Mo  tau(  44) = (  -0.2499965   0.7216896   0.7272502  )
        45           S   tau(  45) = (  -0.3749954   0.7938586   0.6028596  )
        46           S   tau(  46) = (  -0.2499962   0.7216890   0.3667741  )
        47           S   tau(  47) = (  -0.2499961   0.7216884   0.1180258  )
        48           S   tau(  48) = (  -0.3749955   0.7938585   0.8517305  )
        49           Mo  tau(  49) = (   0.2500010   0.1443372  -0.7272732  )
        50           Mo  tau(  50) = (   0.3750034   0.0721723  -0.2424032  )
        51           S   tau(  51) = (   0.2500017   0.1443391  -0.3667788  )
        52           S   tau(  52) = (   0.3750010   0.0721682  -0.6030489  )
        53           S   tau(  53) = (   0.3750010   0.0721683  -0.8514963  )
        54           S   tau(  54) = (   0.2500016   0.1443391  -0.1180271  )
        55           Mo  tau(  55) = (   0.2500037   0.1443371   0.2424008  )
        56           Mo  tau(  56) = (   0.3750049   0.0721708   0.7272499  )
        57           S   tau(  57) = (   0.2500041   0.1443391   0.6028593  )
        58           S   tau(  58) = (   0.3750026   0.0721682   0.3667763  )
        59           S   tau(  59) = (   0.3750033   0.0721687   0.1180242  )
        60           S   tau(  60) = (   0.2500040   0.1443392   0.8517310  )
[...]
       179           S   tau( 179) = (   0.6250040   0.5051821   0.1180241  )
       180           S   tau( 180) = (   0.5000045   0.5773523   0.8517308  )
       181           Mo  tau( 181) = (   0.3750016   0.7938567  -0.7272732  )
       182           Mo  tau( 182) = (   0.5000025   0.7216901  -0.2424039  )
       183           S   tau( 183) = (   0.3750019   0.7938578  -0.3667793  )
       184           S   tau( 184) = (   0.5000016   0.7216877  -0.6030489  )
       185           S   tau( 185) = (   0.5000016   0.7216878  -0.8514963  )
       186           S   tau( 186) = (   0.3750020   0.7938579  -0.1180272  )
       187           Mo  tau( 187) = (   0.3750057   0.7938586   0.2424015  )
       188           Mo  tau( 188) = (   0.5000052   0.7216902   0.7272503  )
       189           S   tau( 189) = (   0.3750045   0.7938588   0.6028592  )
       190           S   tau( 190) = (   0.5000042   0.7216887   0.3667757  )
       191           S   tau( 191) = (   0.5000039   0.7216887   0.1180242  )
       192           S   tau( 192) = (   0.3750047   0.7938587   0.8517308  )
       193           H   tau( 193) = (   0.2500207   0.3608104   0.9151954  )

     DFT-D3 Dispersion Correction (3-body terms):
       Reference C6 values for interpolation:

         atom   Coordination number   C6
         H          0.912             6.05
         H          0.000            15.18
         S          0.000           268.01
         S          0.995           261.99
         S          1.990           251.62
         Mo         0.000          1691.79
         Mo         1.942          1004.01
         Mo        11.056           674.22

       Values used:

         atom   Coordination number  R0_AB[au]  C6      C8
         Mo        10.208            3.547    674.21  77634.20
         Mo        10.221            3.547    674.22  77634.20
         S          3.858            3.128    251.62  12327.25
         S          3.859            3.128    251.62  12327.25
         S          3.758            3.128    251.62  12327.25
         S          3.859            3.128    251.62  12327.25
[...]
     atom   14 type  1   force =     0.00000000    0.00000000    0.00000000
     atom   15 type  2   force =     0.00000000    0.00000000    0.00000000
     atom   16 type  2   force =     0.00000000    0.00000000    0.00000000
     atom   17 type  2   force =     0.00000000    0.00000000    0.00000000
     atom   18 type  2   force =     0.00000000    0.00000000    0.00000000
     atom   19 type  1   force =    -0.00001419   -0.00000396    0.00000550
     atom   20 type  1   force =    -0.00000845   -0.00000125    0.00000311
     atom   21 type  2   force =    -0.00001761   -0.00000590   -0.00001509
     atom   22 type  2   force =    -0.00000756   -0.00000843    0.00000809
     atom   23 type  2   force =    -0.00000167    0.00000219    0.00000371
     atom   24 type  2   force =     0.00001818   -0.00000664   -0.00001370
     atom   25 type  1   force =     0.00000000    0.00000000    0.00000000
     atom   26 type  1   force =     0.00000000    0.00000000    0.00000000
     atom   27 type  2   force =     0.00000000    0.00000000    0.00000000
     atom   28 type  2   force =     0.00000000    0.00000000    0.00000000
     atom   29 type  2   force =     0.00000000    0.00000000    0.00000000
     atom   30 type  2   force =     0.00000000    0.00000000    0.00000000
     atom   31 type  1   force =    -0.00000969    0.00000146   -0.00000396
     atom   32 type  1   force =    -0.00000362   -0.00000357   -0.00002587
     atom   33 type  2   force =    -0.00000564   -0.00000808   -0.00000199
     atom   34 type  2   force =    -0.00000634   -0.00000647   -0.00000227
     atom   35 type  2   force =    -0.00000537    0.00000136    0.00000407
     atom   36 type  2   force =    -0.00000108   -0.00000551   -0.00000237
     atom   37 type  1   force =     0.00000000    0.00000000    0.00000000
     atom   38 type  1   force =     0.00000000    0.00000000    0.00000000
     atom   39 type  2   force =     0.00000000    0.00000000    0.00000000
     atom   40 type  2   force =     0.00000000    0.00000000    0.00000000
     atom   41 type  2   force =     0.00000000    0.00000000    0.00000000
     atom   42 type  2   force =     0.00000000    0.00000000    0.00000000
     atom   43 type  1   force =     0.00000455   -0.00000324    0.00000878
     atom   44 type  1   force =     0.00001547    0.00002455   -0.00002316
     atom   45 type  2   force =     0.00000072    0.00000583   -0.00000588
     atom   46 type  2   force =    -0.00000104    0.00000619   -0.00000057
     atom   47 type  2   force =    -0.00000115   -0.00000364    0.00000576
     atom   48 type  2   force =    -0.00001048   -0.00000069   -0.00000725
     atom   49 type  1   force =     0.00000000    0.00000000    0.00000000
     atom   50 type  1   force =     0.00000000    0.00000000    0.00000000
     atom   51 type  2   force =     0.00000000    0.00000000    0.00000000
     atom   52 type  2   force =     0.00000000    0.00000000    0.00000000
     atom   53 type  2   force =     0.00000000    0.00000000    0.00000000
     atom   54 type  2   force =     0.00000000    0.00000000    0.00000000
     atom   55 type  1   force =     0.00000786   -0.00000515    0.00000835
     atom   56 type  1   force =     0.00001625    0.00001452    0.00000766
     atom   57 type  2   force =     0.00001053   -0.00000261   -0.00000980
     atom   58 type  2   force =     0.00000389    0.00000229    0.00001343
     atom   59 type  2   force =    -0.00000219   -0.00000033    0.00000702
     atom   60 type  2   force =     0.00000732    0.00002004   -0.00000593
[...]
     atom  179 type  2   force =     0.00000121   -0.00000005    0.00000592
     atom  180 type  2   force =    -0.00002156   -0.00000081    0.00000160
     atom  181 type  1   force =     0.00000000    0.00000000    0.00000000
     atom  182 type  1   force =     0.00000000    0.00000000    0.00000000
     atom  183 type  2   force =     0.00000000    0.00000000    0.00000000
     atom  184 type  2   force =     0.00000000    0.00000000    0.00000000
     atom  185 type  2   force =     0.00000000    0.00000000    0.00000000
     atom  186 type  2   force =     0.00000000    0.00000000    0.00000000
     atom  187 type  1   force =    -0.00000021   -0.00000016   -0.00000159
     atom  188 type  1   force =    -0.00000791    0.00001325   -0.00001637
     atom  189 type  2   force =     0.00000506    0.00001683    0.00000184
     atom  190 type  2   force =     0.00000673    0.00000114   -0.00000108
     atom  191 type  2   force =    -0.00000098   -0.00000119    0.00000372
     atom  192 type  2   force =    -0.00001488   -0.00001501    0.00000339
     atom  193 type  3   force =     0.00000114    0.00000031   -0.00000109

     DFT-D3 dispersion contribution to forces:
     atom    1 type  1   force =     0.00000000    0.00000000    0.00255989
     atom    2 type  1   force =     0.00000006    0.00000021    0.00001923
     atom    3 type  2   force =     0.00000002    0.00000000   -0.00003242
     atom    4 type  2   force =    -0.00000001    0.00000001    0.00017146
     atom    5 type  2   force =     0.00000000    0.00000000    0.00441580
     atom    6 type  2   force =     0.00000031   -0.00000021    0.00009939
     atom    7 type  1   force =    -0.00000682    0.00000137   -0.00002490
     atom    8 type  1   force =    -0.00001132    0.00002974   -0.00252861
     atom    9 type  2   force =    -0.00002410    0.00000589   -0.00016502
     atom   10 type  2   force =    -0.00000423   -0.00000086    0.00002325
     atom   11 type  2   force =     0.00000053    0.00000057   -0.00010085
     atom   12 type  2   force =     0.00003444    0.00002622   -0.00440424
     atom   13 type  1   force =     0.00000000    0.00000000    0.00255989
     atom   14 type  1   force =     0.00000021    0.00000002    0.00001900
     atom   15 type  2   force =     0.00000002    0.00000001   -0.00003246
     atom   16 type  2   force =     0.00000001    0.00000001    0.00017146
     atom   17 type  2   force =     0.00000001   -0.00000000    0.00441580
     atom   18 type  2   force =     0.00000012   -0.00000037    0.00009921
     atom   19 type  1   force =    -0.00000693   -0.00000253   -0.00001442
     atom   20 type  1   force =     0.00005425    0.00003101   -0.00248744
     atom   21 type  2   force =    -0.00001079   -0.00001391   -0.00016531
     atom   22 type  2   force =    -0.00001338    0.00000017    0.00002743
     atom   23 type  2   force =    -0.00000024    0.00000037   -0.00009985
     atom   24 type  2   force =     0.00003408   -0.00000386   -0.00440818
     atom   25 type  1   force =    -0.00000000   -0.00000000    0.00255988
     atom   26 type  1   force =     0.00000004    0.00000012    0.00001876
     atom   27 type  2   force =     0.00000003    0.00000000   -0.00003246
     atom   28 type  2   force =     0.00000001    0.00000000    0.00017146
     atom   29 type  2   force =     0.00000000   -0.00000000    0.00441581
     atom   30 type  2   force =    -0.00000009   -0.00000013    0.00009926
     atom   31 type  1   force =     0.00000203   -0.00000693   -0.00002393
     atom   32 type  1   force =     0.00002695   -0.00000614   -0.00253701
     atom   33 type  2   force =     0.00001877   -0.00001026   -0.00017679
     atom   34 type  2   force =    -0.00000976   -0.00000670    0.00002753
     atom   35 type  2   force =    -0.00000000   -0.00000017   -0.00009914
     atom   36 type  2   force =     0.00001196    0.00001170   -0.00440394
     atom   37 type  1   force =    -0.00000001   -0.00000000    0.00255988
     atom   38 type  1   force =     0.00000002    0.00000017    0.00001906
     atom   39 type  2   force =     0.00000001    0.00000002   -0.00003243
     atom   40 type  2   force =     0.00000000   -0.00000000    0.00017145
     atom   41 type  2   force =     0.00000000    0.00000000    0.00441581
     atom   42 type  2   force =    -0.00000001   -0.00000011    0.00009944
     atom   43 type  1   force =    -0.00000091    0.00000014   -0.00003426
     atom   44 type  1   force =     0.00000721   -0.00000618   -0.00255062
     atom   45 type  2   force =     0.00000009    0.00000024   -0.00017107
     atom   46 type  2   force =     0.00000622   -0.00000446    0.00001924
     atom   47 type  2   force =    -0.00000007    0.00000054   -0.00010049
     atom   48 type  2   force =    -0.00000563    0.00000686   -0.00441087
     atom   49 type  1   force =    -0.00000001    0.00000003    0.00255989
     atom   50 type  1   force =    -0.00000006    0.00000019    0.00001921
     atom   51 type  2   force =    -0.00000002   -0.00000001   -0.00003237
     atom   52 type  2   force =     0.00000001    0.00000001    0.00017147
     atom   53 type  2   force =     0.00000000    0.00000001    0.00441580
     atom   54 type  2   force =    -0.00000006   -0.00000024    0.00009955
     atom   55 type  1   force =     0.00000236   -0.00000204   -0.00003680
     atom   56 type  1   force =    -0.00001209    0.00005633   -0.00250245
     atom   57 type  2   force =    -0.00001334   -0.00002605   -0.00018203
     atom   58 type  2   force =     0.00001236   -0.00000456    0.00002118
     atom   59 type  2   force =    -0.00000044    0.00000042   -0.00009983
     atom   60 type  2   force =     0.00001065    0.00020134   -0.00435933
[...]
     atom  179 type  2   force =     0.00000007    0.00000013   -0.00009952
     atom  180 type  2   force =    -0.00016640   -0.00010716   -0.00435422
     atom  181 type  1   force =    -0.00000001   -0.00000001    0.00255990
     atom  182 type  1   force =     0.00000002    0.00000012    0.00001897
     atom  183 type  2   force =    -0.00000002   -0.00000002   -0.00003246
     atom  184 type  2   force =    -0.00000001    0.00000000    0.00017147
     atom  185 type  2   force =     0.00000000   -0.00000000    0.00441581
     atom  186 type  2   force =     0.00000011   -0.00000039    0.00009939
     atom  187 type  1   force =    -0.00000421    0.00000522   -0.00002426
     atom  188 type  1   force =    -0.00003319   -0.00000585   -0.00252714
     atom  189 type  2   force =    -0.00001579    0.00001824   -0.00016554
     atom  190 type  2   force =    -0.00000120    0.00000251    0.00002279
     atom  191 type  2   force =     0.00000025    0.00000020   -0.00010074
     atom  192 type  2   force =    -0.00000724   -0.00004209   -0.00440320
     atom  193 type  3   force =     0.00000917   -0.00000613   -0.00124072

     Total force =     0.002915     Total SCF correction =     0.000167
     Energy error            =      2.6E-05 Ry
     Gradient error          =      9.8E-04 Ry/Bohr

     bfgs converged in  46 scf cycles and  45 bfgs steps
     (criteria: energy <  1.0E-04 Ry, force <  1.0E-03 Ry/Bohr)

     End of BFGS Geometry Optimization

     Final energy             =  -31794.7650941749 Ry

     File ./outdir/pwscf.bfgs deleted, as requested
Begin final coordinates

ATOMIC_POSITIONS (angstrom)
Mo            0.0000119917        1.8193638619       -9.1672481230    0   0   0
Mo            1.5756136568        0.9097075315       -3.0554901653    0   0   0
S             0.0000188998        1.8193822938       -4.6232556019    0   0   0
S             1.5756321638        0.9096773839       -7.6014065489    0   0   0
S             1.5756326175        0.9096785128      -10.7330757790    0   0   0
S             0.0000189190        1.8193860094       -1.4877129945    0   0   0
Mo           -0.0000090444        1.8144744114        3.0537534903
Mo            1.5652671305        0.9027426073        9.1774792708
S            -0.0041487577        1.8094824154        7.5996819039
S             1.5759535902        0.9050406922        4.6216407147
S             1.5753435087        0.9049068526        1.4857679586
S            -0.0169820513        1.8116860060       10.7397924872
Mo           -1.5756053507        4.5484193819       -9.1672481230    0   0   0
Mo            0.0000378379        3.6387394919       -3.0554952701    0   0   0
S            -1.5755913433        4.5484363582       -4.6232494962    0   0   0
S             0.0000148214        3.6387329039       -7.6014065489    0   0   0
S             0.0000152751        3.6387340328      -10.7330757790    0   0   0
S            -1.5755906502        4.5484413613       -1.4877305502    0   0   0
Mo           -1.5758602156        4.5436931461        3.0533401688
Mo           -0.0150967495        3.6297296401        9.1657852042
S            -1.5787117347        4.5432501695        7.5909252174
S            -0.0003239496        3.6338993491        4.6214372747
S             0.0000801074        3.6339559629        1.4860022605
S            -1.5919549057        4.5428106309       10.7323107607
Mo           -3.1512226931        7.2774749019       -9.1672481230    0   0   0
Mo           -1.5755910988        6.3678216792       -3.0555115988    0   0   0
S            -3.1512162438        7.2774954350       -4.6232578178    0   0   0
S            -1.5756025210        6.3677884239       -7.6014065489    0   0   0
S            -1.5756020673        6.3677895528      -10.7330757790    0   0   0
S            -3.1512127704        7.2774877076       -1.4877200710    0   0   0
Mo           -3.1516828508        7.2729724787        3.0536740731
Mo           -1.5857031414        6.3604560508        9.1637527526
S            -3.1666599634        7.2719064221        7.6021046986
S            -1.5761680490        6.3630619608        4.6211621117
S            -1.5759156604        6.3633427181        1.4858356665
S            -3.1614416249        7.2651548654       10.7357415412
Mo           -4.7268400355       10.0065304219       -9.1672481230    0   0   0
Mo           -3.1512405618        9.0968403586       -3.0554816746    0   0   0
S            -4.7268341792       10.0065523623       -4.6232463762    0   0   0
S            -3.1512198634        9.0968439439       -7.6014065489    0   0   0
S            -3.1512194097        9.0968450728      -10.7330757790    0   0   0
S            -4.7268370797       10.0065537885       -1.4877176751    0   0   0
Mo           -4.7270552716       10.0018514531        3.0538079139
Mo           -3.1587320696        9.0898649627        9.1719694207
S            -4.7366032056        9.9988020919        7.6085202420
S            -3.1515411820        9.0923387165        4.6216373098
S            -3.1515381315        9.0923078709        1.4858470750
S            -4.7347088466        9.9971102317       10.7424790407
Mo            3.1512517547        1.8193638619       -9.1672481230    0   0   0
Mo            4.7269020221        0.9097289540       -3.0554823951    0   0   0
S             3.1512612351        1.8193882564       -4.6232320683    0   0   0
S             4.7268719268        0.9096773839       -7.6014065489    0   0   0
S             4.7268723805        0.9096785128      -10.7330757790    0   0   0
S             3.1512592485        1.8193890201       -1.4877261251    0   0   0
Mo            3.1509340044        1.8149398259        3.0529187190
Mo            4.7266249286        0.9117451642        9.1729754728
S             3.1427491592        1.8183720280        7.6177717895
S             4.7257852024        0.9051611534        4.6211505230
S             4.7269050407        0.9051636226        1.4857973331
S             3.1427416548        1.7975070345       10.7529704598
[...]
S             7.8776960374        6.3631615206        1.4859920816
S             6.3022265589        7.2749272079       10.7493274796
Mo            4.7268792535       10.0065304219       -9.1672481230    0   0   0
Mo            6.3025111524        9.0968738021       -3.0554915260    0   0   0
S             4.7268840634       10.0065452125       -4.6232380477    0   0   0
S             6.3024994256        9.0968439439       -7.6014065489    0   0   0
S             6.3024998793        9.0968450728      -10.7330757790    0   0   0
S             4.7268847312       10.0065459141       -1.4877283294    0   0   0
Mo            4.7268780291       10.0016188846        3.0540550715
Mo            6.2910472332        9.0877744585        9.1758395929
S             4.7214097427        9.9936549955        7.5999812627
S             6.3025396448        9.0916804555        4.6218759942
S             6.3022460987        9.0922022983        1.4859971365
S             4.7137625762       10.0025956332       10.7392884640
H             3.7207733363        5.1170350701       11.8459295951
End final coordinates

     Writing all to output data dir ./outdir/pwscf.save/

     General routines

     Parallel routines

   This run was terminated on:  12:33:13  22Aug2023

   JOB DONE.
Application 11063899 resources: utime ~5490813s, stime ~50349s, Rss ~3487052, inblocks ~0, outblocks ~56528920