     Program PWSCF v.7.2 starts on  2Sep2023 at  7:48:48

     Waiting for input...
     Reading input from standard input
Warning: card &CELL ignored
Warning: card / ignored

     Current dimensions of program PWSCF are:
     Max number of different atomic species (ntypx) = 10
     Max number of k-points (npk) =  40000
     Max angular momentum in pseudopotentials (lmaxx) =  4
     file Mo.pbe-spn-kjpaw_psl.1.0.0.UPF: wavefunction(s)  4S 4D renormalized
     file S.pbe-n-kjpaw_psl.1.0.0.UPF: wavefunction(s)  3S 3P renormalized
     file Pd.pbe-spn-kjpaw_psl.1.0.0.UPF: wavefunction(s)  4S 5S 4D renormalized
     file H.pbe-kjpaw_psl.1.0.0.UPF: wavefunction(s)  1S renormalized

     R & G space division:  proc/nbgrp/npool/nimage =      36
     Subspace diagonalization in iterative solution of the eigenvalue problem:
     one sub-group per band group will be used

     Using Slab Decomposition

     bravais-lattice index     =            0
     lattice parameter (alat)  =      23.8199  a.u.
     unit-cell volume          =   33861.0370 (a.u.)^3
     number of atoms/cell      =          194
     number of atomic types    =            4
     number of electrons       =      1683.00
     number of Kohn-Sham states=         1010
     kinetic-energy cutoff     =      77.0000  Ry
     charge density cutoff     =     539.0000  Ry
     scf convergence threshold =      1.0E-06
     mixing beta               =       0.2000
     number of iterations used =            8  plain     mixing
     energy convergence thresh.=      1.0E-04
     force convergence thresh. =      1.0E-03
     Exchange-correlation= SLA  PW   PBX  PBC
                           (   1   4   3   4   0   0   0)
     nstep                     =         1000

     Effective Screening Medium Method
     Boundary Conditions: Vacuum-Slab-Vacuum
     total charge in unit cell        =   0.0000
     grid points for fit at edges     =        4

     celldm(1)=  23.819920  celldm(2)=   0.000000  celldm(3)=   0.000000
     celldm(4)=   0.000000  celldm(5)=   0.000000  celldm(6)=   0.000000

     crystal axes: (cart. coord. in units of alat)
               a(1) = (   1.000000   0.000000   0.000000 )
               a(2) = (  -0.499999   0.866026   0.000000 )
               a(3) = (   0.000000   0.000000   2.893000 )

     reciprocal axes: (cart. coord. in units 2 pi/alat)
               b(1) = (  1.000000  0.577349  0.000000 )
               b(2) = (  0.000000  1.154700  0.000000 )
               b(3) = (  0.000000  0.000000  0.345662 )

     PseudoPot. # 1 for Mo read from file:
     ./pseudo/Mo.pbe-spn-kjpaw_psl.1.0.0.UPF
     MD5 check sum: 317bf72632116215fd98f72de1686f13
     Pseudo is Projector augmented-wave + core cor, Zval = 14.0
     Generated using 'atomic' code by A. Dal Corso  v.7.2
     Shape of augmentation charge: PSQ
     Using radial grid of 1229 points,  6 beta functions with:
                l(1) =   0
                l(2) =   0
                l(3) =   1
                l(4) =   1
                l(5) =   2
                l(6) =   2
     Q(r) pseudized with 0 coefficients

     PseudoPot. # 2 for S  read from file:
     ./pseudo/S.pbe-n-kjpaw_psl.1.0.0.UPF
     MD5 check sum: 8b7b5302570d38d5e87fed6a1065abda
     Pseudo is Projector augmented-wave + core cor, Zval =  6.0
     Generated using 'atomic' code by A. Dal Corso  v.7.2
     Shape of augmentation charge: PSQ
     Using radial grid of 1151 points,  6 beta functions with:
                l(1) =   0
                l(2) =   0
                l(3) =   1
                l(4) =   1
                l(5) =   2
                l(6) =   2
     Q(r) pseudized with 0 coefficients

     PseudoPot. # 3 for Pd read from file:
     ./pseudo/Pd.pbe-spn-kjpaw_psl.1.0.0.UPF
     MD5 check sum: a60571a671f2502b8a6a4569d20a6edb
     Pseudo is Projector augmented-wave + core cor, Zval = 18.0
     Generated using 'atomic' code by A. Dal Corso  v.7.2
     Shape of augmentation charge: PSQ
     Using radial grid of 1235 points,  6 beta functions with:
                l(1) =   0
                l(2) =   0
                l(3) =   1
                l(4) =   1
                l(5) =   2
                l(6) =   2
     Q(r) pseudized with 0 coefficients

     PseudoPot. # 4 for H  read from file:
     ./pseudo/H.pbe-kjpaw_psl.1.0.0.UPF
     MD5 check sum: b3cb3c48ee3b58cc53e4d592112d0ca6
     Pseudo is Projector augmented-wave, Zval =  1.0
     Generated using 'atomic' code by A. Dal Corso  v.7.2
     Shape of augmentation charge: PSQ
     Using radial grid of  929 points,  2 beta functions with:
                l(1) =   0
                l(2) =   0
     Q(r) pseudized with 0 coefficients

     atomic species   valence    mass     pseudopotential
        Mo            14.00    95.95000     Mo( 1.00)
        S              6.00    32.06000     S ( 1.00)
        Pd            18.00   106.42000     Pd( 1.00)
        H              1.00     1.00800     H ( 1.00)

     No symmetry found

   Cartesian axes

     site n.     atom                  positions (alat units)
         1           Mo  tau(   1) = (   0.0000010   0.1443372  -0.7272732  )
         2           Mo  tau(   2) = (   0.1249995   0.0721706  -0.2424038  )
         3           S   tau(   3) = (   0.0000015   0.1443386  -0.3667807  )
         4           S   tau(   4) = (   0.1250010   0.0721682  -0.6030489  )
         5           S   tau(   5) = (   0.1250010   0.0721683  -0.8514963  )
         6           S   tau(   6) = (   0.0000015   0.1443389  -0.1180260  )
         7           Mo  tau(   7) = (   0.0000007   0.1443589   0.2424205  )
         8           Mo  tau(   8) = (   0.1250041   0.0720322   0.7266168  )
         9           S   tau(   9) = (   0.0000742   0.1444871   0.6020949  )
        10           S   tau(  10) = (   0.1250024   0.0721701   0.3667478  )
        11           S   tau(  11) = (   0.1250035   0.0721876   0.1180348  )
        12           S   tau(  12) = (  -0.0004118   0.1430864   0.8514340  )
        13           Mo  tau(  13) = (  -0.1249989   0.3608437  -0.7272732  )
        14           Mo  tau(  14) = (   0.0000030   0.2886752  -0.2424042  )
        15           S   tau(  15) = (  -0.1249977   0.3608450  -0.3667802  )
        16           S   tau(  16) = (   0.0000012   0.2886747  -0.6030489  )
        17           S   tau(  17) = (   0.0000012   0.2886748  -0.8514963  )
        18           S   tau(  18) = (  -0.1249977   0.3608454  -0.1180274  )
        19           Mo  tau(  19) = (  -0.1249729   0.3608584   0.2424608  )
        20           Mo  tau(  20) = (  -0.0007193   0.2876626   0.7275440  )
        21           S   tau(  21) = (  -0.1251115   0.3607789   0.6027257  )
        22           S   tau(  22) = (   0.0000621   0.2887099   0.3668377  )
        23           S   tau(  23) = (  -0.0000096   0.2886902   0.1180527  )
        24           S   tau(  24) = (  -0.1254673   0.3605734   0.8517408  )
        25           Mo  tau(  25) = (  -0.2499987   0.5773502  -0.7272732  )
        26           Mo  tau(  26) = (  -0.1249977   0.5051839  -0.2424055  )
        27           S   tau(  27) = (  -0.2499981   0.5773518  -0.3667809  )
        28           S   tau(  28) = (  -0.1249986   0.5051812  -0.6030489  )
        29           S   tau(  29) = (  -0.1249986   0.5051813  -0.8514963  )
        30           S   tau(  30) = (  -0.2499979   0.5773512  -0.1180266  )
        31           Mo  tau(  31) = (  -0.2499795   0.5773389   0.2424205  )
        32           Mo  tau(  32) = (  -0.1262356   0.5050639   0.7275441  )
        33           S   tau(  33) = (  -0.2498323   0.5773390   0.6020948  )
        34           S   tau(  34) = (  -0.1249376   0.5052159   0.3668377  )
        35           S   tau(  35) = (  -0.1249905   0.5051638   0.1180531  )
        36           S   tau(  36) = (  -0.2512883   0.5776183   0.8514340  )
        37           Mo  tau(  37) = (  -0.3749985   0.7938567  -0.7272732  )
        38           Mo  tau(  38) = (  -0.2500001   0.7216874  -0.2424031  )
        39           S   tau(  39) = (  -0.3749980   0.7938584  -0.3667800  )
        40           S   tau(  40) = (  -0.2499984   0.7216877  -0.6030489  )
        41           S   tau(  41) = (  -0.2499984   0.7216878  -0.8514963  )
        42           S   tau(  42) = (  -0.3749982   0.7938585  -0.1180264  )
        43           Mo  tau(  43) = (  -0.3749962   0.7938568   0.2423838  )
        44           Mo  tau(  44) = (  -0.2501148   0.7217588   0.7266170  )
        45           S   tau(  45) = (  -0.3749945   0.7938590   0.6021274  )
        46           S   tau(  46) = (  -0.2499958   0.7216877   0.3667488  )
        47           S   tau(  47) = (  -0.2499810   0.7216794   0.1180323  )
        48           S   tau(  48) = (  -0.3749953   0.7938585   0.8511588  )
        49           Mo  tau(  49) = (   0.2500010   0.1443372  -0.7272732  )
        50           Mo  tau(  50) = (   0.3750034   0.0721723  -0.2424032  )
        51           S   tau(  51) = (   0.2500017   0.1443391  -0.3667788  )
        52           S   tau(  52) = (   0.3750010   0.0721682  -0.6030489  )
        53           S   tau(  53) = (   0.3750010   0.0721683  -0.8514963  )
        54           S   tau(  54) = (   0.2500016   0.1443391  -0.1180271  )
        55           Mo  tau(  55) = (   0.2500054   0.1443594   0.2424211  )
        56           Mo  tau(  56) = (   0.3749279   0.0721263   0.7263991  )
        57           S   tau(  57) = (   0.2499344   0.1444864   0.6020948  )
        58           S   tau(  58) = (   0.3750316   0.0721860   0.3667597  )
        59           S   tau(  59) = (   0.3749924   0.0721644   0.1180346  )
        60           S   tau(  60) = (   0.2504199   0.1430865   0.8514340  )
[...]
       180           S   tau( 180) = (   0.5012979   0.5776190   0.8514332  )
       181           Mo  tau( 181) = (   0.3750016   0.7938567  -0.7272732  )
       182           Mo  tau( 182) = (   0.5000025   0.7216901  -0.2424039  )
       183           S   tau( 183) = (   0.3750019   0.7938578  -0.3667793  )
       184           S   tau( 184) = (   0.5000016   0.7216877  -0.6030489  )
       185           S   tau( 185) = (   0.5000016   0.7216878  -0.8514963  )
       186           S   tau( 186) = (   0.3750020   0.7938579  -0.1180272  )
       187           Mo  tau( 187) = (   0.3749848   0.7938487   0.2424206  )
       188           Mo  tau( 188) = (   0.5001249   0.7217591   0.7266160  )
       189           S   tau( 189) = (   0.3749125   0.7937251   0.6020942  )
       190           S   tau( 190) = (   0.5000021   0.7216868   0.3667472  )
       191           S   tau( 191) = (   0.4999874   0.7216780   0.1180346  )
       192           S   tau( 192) = (   0.3758826   0.7948451   0.8514332  )
       193           Pd  tau( 193) = (   0.1250063   0.5051842   0.9601361  )
       194           H   tau( 194) = (   0.2577557   0.5818345   0.9827085  )

     DFT-D3 Dispersion Correction (3-body terms):
       Reference C6 values for interpolation:

         atom   Coordination number   C6
         H          0.912             6.05
         H          0.000            15.18
         S          0.000           268.01
[...]
     atom   14 type  1   force =     0.00000000    0.00000000    0.00000000
     atom   15 type  2   force =     0.00000000    0.00000000    0.00000000
     atom   16 type  2   force =     0.00000000    0.00000000    0.00000000
     atom   17 type  2   force =     0.00000000    0.00000000    0.00000000
     atom   18 type  2   force =     0.00000000    0.00000000    0.00000000
     atom   19 type  1   force =     0.00000799    0.00000356   -0.00000332
     atom   20 type  1   force =     0.00000049    0.00001858   -0.00000645
     atom   21 type  2   force =    -0.00001548   -0.00000911   -0.00000814
     atom   22 type  2   force =    -0.00000507   -0.00000093   -0.00000521
     atom   23 type  2   force =    -0.00000393   -0.00000359   -0.00000507
     atom   24 type  2   force =    -0.00001530   -0.00000897   -0.00001623
     atom   25 type  1   force =     0.00000000    0.00000000    0.00000000
     atom   26 type  1   force =     0.00000000    0.00000000    0.00000000
     atom   27 type  2   force =     0.00000000    0.00000000    0.00000000
     atom   28 type  2   force =     0.00000000    0.00000000    0.00000000
     atom   29 type  2   force =     0.00000000    0.00000000    0.00000000
     atom   30 type  2   force =     0.00000000    0.00000000    0.00000000
     atom   31 type  1   force =     0.00001175    0.00000282   -0.00001362
     atom   32 type  1   force =     0.00001600   -0.00000913   -0.00000602
     atom   33 type  2   force =     0.00000256   -0.00000386   -0.00001516
     atom   34 type  2   force =    -0.00000341   -0.00000408   -0.00000501
     atom   35 type  2   force =    -0.00000489   -0.00000187   -0.00000536
     atom   36 type  2   force =    -0.00000358   -0.00000136    0.00000080
     atom   37 type  1   force =     0.00000000    0.00000000    0.00000000
     atom   38 type  1   force =     0.00000000    0.00000000    0.00000000
     atom   39 type  2   force =     0.00000000    0.00000000    0.00000000
     atom   40 type  2   force =     0.00000000    0.00000000    0.00000000
     atom   41 type  2   force =     0.00000000    0.00000000    0.00000000
     atom   42 type  2   force =     0.00000000    0.00000000    0.00000000
     atom   43 type  1   force =     0.00001404    0.00000888   -0.00002883
     atom   44 type  1   force =     0.00000516    0.00000249   -0.00001905
     atom   45 type  2   force =     0.00000831    0.00000468   -0.00000995
     atom   46 type  2   force =     0.00000296   -0.00000166   -0.00000647
     atom   47 type  2   force =    -0.00000045    0.00000100   -0.00000243
     atom   48 type  2   force =     0.00000933    0.00000532    0.00000391
     atom   49 type  1   force =     0.00000000    0.00000000    0.00000000
     atom   50 type  1   force =     0.00000000    0.00000000    0.00000000
     atom   51 type  2   force =     0.00000000    0.00000000    0.00000000
     atom   52 type  2   force =     0.00000000    0.00000000    0.00000000
     atom   53 type  2   force =     0.00000000    0.00000000    0.00000000
     atom   54 type  2   force =     0.00000000    0.00000000    0.00000000
     atom   55 type  1   force =     0.00002241    0.00000676   -0.00002076
     atom   56 type  1   force =     0.00002512    0.00001475   -0.00003290
     atom   57 type  2   force =     0.00000315   -0.00000687   -0.00001622
     atom   58 type  2   force =    -0.00000177   -0.00000086   -0.00000696
     atom   59 type  2   force =    -0.00000046   -0.00000012    0.00000077
     atom   60 type  2   force =     0.00000011   -0.00000767    0.00000459
[...]
     atom  180 type  2   force =     0.00000602   -0.00001847    0.00000473
     atom  181 type  1   force =     0.00000000    0.00000000    0.00000000
     atom  182 type  1   force =     0.00000000    0.00000000    0.00000000
     atom  183 type  2   force =     0.00000000    0.00000000    0.00000000
     atom  184 type  2   force =     0.00000000    0.00000000    0.00000000
     atom  185 type  2   force =     0.00000000    0.00000000    0.00000000
     atom  186 type  2   force =     0.00000000    0.00000000    0.00000000
     atom  187 type  1   force =     0.00001151    0.00001822   -0.00000943
     atom  188 type  1   force =     0.00000243    0.00000088   -0.00002871
     atom  189 type  2   force =    -0.00000694    0.00000447   -0.00000367
     atom  190 type  2   force =    -0.00000210   -0.00000116   -0.00001451
     atom  191 type  2   force =     0.00000062    0.00000052   -0.00000530
     atom  192 type  2   force =    -0.00001250    0.00001437    0.00000497
     atom  193 type  3   force =     0.00011858    0.00006811   -0.00002888
     atom  194 type  4   force =    -0.00000377   -0.00000218    0.00000220

     DFT-D3 dispersion contribution to forces:
     atom    1 type  1   force =     0.00000000    0.00000004    0.00255981
     atom    2 type  1   force =    -0.00000004    0.00000016    0.00003692
     atom    3 type  2   force =     0.00000003    0.00000000   -0.00003058
     atom    4 type  2   force =    -0.00000001   -0.00000001    0.00017187
     atom    5 type  2   force =    -0.00000001   -0.00000002    0.00441513
     atom    6 type  2   force =     0.00000044    0.00000023    0.00011043
     atom    7 type  1   force =    -0.00000477   -0.00000812   -0.00003609
     atom    8 type  1   force =     0.00000076    0.00007985   -0.00245297
     atom    9 type  2   force =     0.00000333   -0.00000448   -0.00012177
     atom   10 type  2   force =     0.00000067   -0.00001727    0.00002780
     atom   11 type  2   force =    -0.00000051   -0.00000004   -0.00010906
     atom   12 type  2   force =     0.00009502    0.00026727   -0.00431188
     atom   13 type  1   force =     0.00000003    0.00000001    0.00255985
     atom   14 type  1   force =     0.00000026    0.00000037    0.00003739
     atom   15 type  2   force =     0.00000006    0.00000002   -0.00003053
     atom   16 type  2   force =     0.00000001    0.00000001    0.00017190
     atom   17 type  2   force =    -0.00000001    0.00000002    0.00441503
     atom   18 type  2   force =     0.00000069    0.00000038    0.00011066
     atom   19 type  1   force =    -0.00001221   -0.00000706   -0.00004542
     atom   20 type  1   force =     0.00017164    0.00029882   -0.00214289
     atom   21 type  2   force =     0.00001932    0.00001115   -0.00008089
     atom   22 type  2   force =    -0.00000624   -0.00001803    0.00002648
     atom   23 type  2   force =     0.00000092   -0.00000009   -0.00011202
     atom   24 type  2   force =     0.00049205    0.00028409   -0.00415748
     atom   25 type  1   force =     0.00000004   -0.00000002    0.00255980
     atom   26 type  1   force =     0.00000048    0.00000002    0.00003736
     atom   27 type  2   force =     0.00000002    0.00000002   -0.00003060
     atom   28 type  2   force =     0.00000001   -0.00000000    0.00017189
     atom   29 type  2   force =     0.00000001   -0.00000002    0.00441503
     atom   30 type  2   force =     0.00000043    0.00000027    0.00011043
     atom   31 type  1   force =    -0.00000942   -0.00000007   -0.00003607
     atom   32 type  1   force =     0.00034460   -0.00000075   -0.00214288
     atom   33 type  2   force =    -0.00000222    0.00000512   -0.00012177
     atom   34 type  2   force =    -0.00001874    0.00000361    0.00002649
     atom   35 type  2   force =     0.00000040    0.00000084   -0.00011201
     atom   36 type  2   force =     0.00027899   -0.00005135   -0.00431187
     atom   37 type  1   force =    -0.00000001   -0.00000001    0.00255985
     atom   38 type  1   force =     0.00000010   -0.00000008    0.00003694
     atom   39 type  2   force =     0.00000001    0.00000002   -0.00003059
     atom   40 type  2   force =    -0.00000002   -0.00000000    0.00017186
     atom   41 type  2   force =    -0.00000002    0.00000001    0.00441513
     atom   42 type  2   force =     0.00000021    0.00000014    0.00011027
     atom   43 type  1   force =    -0.00000047   -0.00000027   -0.00002427
     atom   44 type  1   force =     0.00006955   -0.00003927   -0.00245297
     atom   45 type  2   force =    -0.00000101   -0.00000058   -0.00014726
     atom   46 type  2   force =    -0.00001462    0.00000921    0.00002780
     atom   47 type  2   force =    -0.00000030   -0.00000041   -0.00010905
     atom   48 type  2   force =     0.00000252    0.00000145   -0.00440895
     atom   49 type  1   force =    -0.00000000    0.00000005    0.00255980
     atom   50 type  1   force =    -0.00000014   -0.00000007    0.00003687
     atom   51 type  2   force =    -0.00000003   -0.00000001   -0.00003058
     atom   52 type  2   force =     0.00000000    0.00000000    0.00017189
     atom   53 type  2   force =    -0.00000000   -0.00000000    0.00441512
     atom   54 type  2   force =    -0.00000010    0.00000020    0.00011047
     atom   55 type  1   force =     0.00000288   -0.00000848   -0.00003804
     atom   56 type  1   force =    -0.00001155   -0.00000667   -0.00247013
     atom   57 type  2   force =    -0.00001016   -0.00000734   -0.00012287
     atom   58 type  2   force =     0.00000052    0.00000030    0.00003284
     atom   59 type  2   force =    -0.00000099   -0.00000056   -0.00010894
     atom   60 type  2   force =    -0.00009362    0.00027468   -0.00430833
[...]
     atom  180 type  2   force =    -0.00030137   -0.00005715   -0.00430350
     atom  181 type  1   force =    -0.00000004   -0.00000003    0.00255982
     atom  182 type  1   force =    -0.00000019   -0.00000008    0.00003680
     atom  183 type  2   force =    -0.00000001   -0.00000002   -0.00003059
     atom  184 type  2   force =    -0.00000000    0.00000000    0.00017188
     atom  185 type  2   force =     0.00000001    0.00000001    0.00441513
     atom  186 type  2   force =     0.00000000   -0.00000023    0.00011040
     atom  187 type  1   force =     0.00000573    0.00000839   -0.00003722
     atom  188 type  1   force =    -0.00007554   -0.00004361   -0.00245074
     atom  189 type  2   force =     0.00000732   -0.00000346   -0.00012228
     atom  190 type  2   force =     0.00001902    0.00001098    0.00002821
     atom  191 type  2   force =    -0.00000034   -0.00000019   -0.00010920
     atom  192 type  2   force =    -0.00020019   -0.00023243   -0.00430350
     atom  193 type  3   force =    -0.00000932   -0.00000540   -0.00638779
     atom  194 type  4   force =     0.00000238    0.00000139   -0.00079606

     Total force =     0.002900     Total SCF correction =     0.000249
     Energy error            =      2.2E-05 Ry
     Gradient error          =      9.9E-04 Ry/Bohr

     bfgs converged in  45 scf cycles and  44 bfgs steps
     (criteria: energy <  1.0E-04 Ry, force <  1.0E-03 Ry/Bohr)

     End of BFGS Geometry Optimization

     Final energy             =  -32306.7853828951 Ry

     File ./outdir/pwscf.bfgs deleted, as requested
Begin final coordinates

ATOMIC_POSITIONS (angstrom)
Mo            0.0000119917        1.8193638619       -9.1672481230    0   0   0
Mo            1.5756136568        0.9097075315       -3.0554901653    0   0   0
S             0.0000188998        1.8193822938       -4.6232556019    0   0   0
S             1.5756321638        0.9096773839       -7.6014065489    0   0   0
S             1.5756326175        0.9096785128      -10.7330757790    0   0   0
S             0.0000189190        1.8193860094       -1.4877129945    0   0   0
Mo            0.0025146302        1.8208406971        3.0446571102
Mo            1.6019367825        0.9226157986        9.1500115747
S             0.0259360169        1.8347661133        7.5810485295
S             1.5783642219        0.9117022617        4.6123826835
S             1.5781186293        0.9109532372        1.4772888430
S             0.0227524610        1.8166041803       10.7251951028
Mo           -1.5756053507        4.5484193819       -9.1672481230    0   0   0
Mo            0.0000378379        3.6387394919       -3.0554952701    0   0   0
S            -1.5755913433        4.5484363582       -4.6232494962    0   0   0
S             0.0000148214        3.6387329039       -7.6014065489    0   0   0
S             0.0000152751        3.6387340328      -10.7330757790    0   0   0
S            -1.5755906502        4.5484413613       -1.4877305502    0   0   0
Mo           -1.5730027246        4.5499268597        3.0452284837
Mo            0.0181299435        3.6397416610        9.1606944769
S            -1.5489477554        4.5638026847        7.5888070403
S             0.0034809055        3.6406024390        4.6123791794
S             0.0017079930        3.6398976849        1.4767309004
S            -1.5570734884        4.5591084628       10.7255786353
Mo           -3.1512226931        7.2774749019       -9.1672481230    0   0   0
Mo           -1.5755910988        6.3678216792       -3.0555115988    0   0   0
S            -3.1512162438        7.2774954350       -4.6232578178    0   0   0
S            -1.5756025210        6.3677884239       -7.6014065489    0   0   0
S            -1.5756020673        6.3677895528      -10.7330757790    0   0   0
S            -3.1512127704        7.2774877076       -1.4877200710    0   0   0
Mo           -3.1486940663        7.2789146626        3.0446594221
Mo           -1.5656662500        6.3829615586        9.1606945885
S            -3.1249059479        7.2922203149        7.5810502562
S            -1.5722537605        6.3698638747        4.6123810126
S            -1.5737535591        6.3686833202        1.4767320823
S            -3.1422290413        7.2985399738       10.7251980740
Mo           -4.7268400355       10.0065304219       -9.1672481230    0   0   0
Mo           -3.1512405618        9.0968403586       -3.0554816746    0   0   0
S            -4.7268341792       10.0065523623       -4.6232463762    0   0   0
S            -3.1512198634        9.0968439439       -7.6014065489    0   0   0
S            -3.1512194097        9.0968450728      -10.7330757790    0   0   0
S            -4.7268370797       10.0065537885       -1.4877176751    0   0   0
Mo           -4.7241573872       10.0080854180        3.0451375222
Mo           -3.1268535334        9.1131502500        9.1500160098
S            -4.7005670929       10.0216904669        7.5801657886
S            -3.1481056600        9.0982113885        4.6123846050
S            -3.1488766193        9.0983710565        1.4772914862
S            -4.7001967751       10.0219082418       10.7196873873
Mo            3.1512517547        1.8193638619       -9.1672481230    0   0   0
Mo            4.7269020221        0.9097289540       -3.0554823951    0   0   0
S             3.1512612351        1.8193882564       -4.6232320683    0   0   0
S             4.7268719268        0.9096773839       -7.6014065489    0   0   0
S             4.7268723805        0.9096785128      -10.7330757790    0   0   0
S             3.1512592485        1.8193890201       -1.4877261251    0   0   0
Mo            3.1538301110        1.8209659007        3.0448634063
Mo            4.7543027768        0.9255088795        9.1511591373
S             3.1787049814        1.8379511657        7.5846687504
S             4.7295309356        0.9112179160        4.6126522427
S             4.7295448739        0.9112251990        1.4774374409
S             3.1813106623        1.8173949330       10.7261722183
[...]
S             6.3459290129        7.2994378959       10.7264381374
Mo            4.7268792535       10.0065304219       -9.1672481230    0   0   0
Mo            6.3025111524        9.0968738021       -3.0554915260    0   0   0
S             4.7268840634       10.0065452125       -4.6232380477    0   0   0
S             6.3024994256        9.0968439439       -7.6014065489    0   0   0
S             6.3024998793        9.0968450728      -10.7330757790    0   0   0
S             4.7268847312       10.0065459141       -1.4877283294    0   0   0
Mo            4.7292615704       10.0078025626        3.0448258353
Mo            6.3303212298        9.1129018355        9.1504466643
S             4.7501739173       10.0189473551        7.5832153447
S             6.3049768099        9.0982848747        4.6122183701
S             6.3050862494        9.0983462772        1.4773048874
S             4.7676218875       10.0331507745       10.7264427250
Pd            1.6269390965        6.3974276650       12.1568234658
H             1.8189960798        6.5086964598       13.7361701341
End final coordinates

     Writing all to output data dir ./outdir/pwscf.save/

     General routines

     Parallel routines

   This run was terminated on:   4:18:32   4Sep2023

   JOB DONE.
Application 11123270 resources: utime ~5705277s, stime ~59982s, Rss ~3495112, inblocks ~0, outblocks ~56607296