     Program PWSCF v.7.3 starts on  1Apr2024 at  3:18:21

     Waiting for input...
     Reading input from standard input
Warning: card &CELL ignored
Warning: card / ignored

     Current dimensions of program PWSCF are:
     Max number of different atomic species (ntypx) = 10
     Max number of k-points (npk) =  40000
     Max angular momentum in pseudopotentials (lmaxx) =  4
     file Mo.pbe-spn-kjpaw_psl.1.0.0.UPF: wavefunction(s)  4S 4D renormalized
     file S.pbe-n-kjpaw_psl.1.0.0.UPF: wavefunction(s)  3S 3P renormalized
     file Pt.pbe-spfn-kjpaw_psl.1.0.0.UPF: wavefunction(s)  5P 4F renormalized
     file Pd.pbe-spn-kjpaw_psl.1.0.0.UPF: wavefunction(s)  4S 5S 4D renormalized

     R & G space division:  proc/nbgrp/npool/nimage =      36
     Subspace diagonalization in iterative solution of the eigenvalue problem:
     one sub-group per band group will be used

     Using Slab Decomposition

     bravais-lattice index     =            0
     lattice parameter (alat)  =      23.8395  a.u.
     unit-cell volume          =   28182.8498 (a.u.)^3
     number of atoms/cell      =          147
     number of atomic types    =            4
     number of electrons       =      1316.00
     number of Kohn-Sham states=          790
     kinetic-energy cutoff     =      77.0000  Ry
     charge density cutoff     =     539.0000  Ry
     scf convergence threshold =      1.0E-06
     mixing beta               =       0.2000
     number of iterations used =            8  plain     mixing
     energy convergence thresh.=      1.0E-04
     force convergence thresh. =      1.0E-03
     Exchange-correlation= SLA  PW   PBX  PBC
                           (   1   4   3   4   0   0   0)
     nstep                     =         1000

     Effective Screening Medium Method
     Boundary Conditions: Vacuum-Slab-Vacuum
     total charge in unit cell        =   0.0000
     grid points for fit at edges     =        4

     celldm(1)=  23.839504  celldm(2)=   0.000000  celldm(3)=   0.000000
     celldm(4)=   0.000000  celldm(5)=   0.000000  celldm(6)=   0.000000

     crystal axes: (cart. coord. in units of alat)
               a(1) = (   1.000000   0.000000   0.000000 )
               a(2) = (  -0.500001   0.866026   0.000000 )
               a(3) = (   0.000000   0.000000   2.401941 )

     reciprocal axes: (cart. coord. in units 2 pi/alat)
               b(1) = (  1.000000  0.577351  0.000000 )
               b(2) = (  0.000000  1.154700  0.000000 )
               b(3) = (  0.000000  0.000000  0.416330 )

     PseudoPot. # 1 for Mo read from file:
     ./pseudo/Mo.pbe-spn-kjpaw_psl.1.0.0.UPF
     MD5 check sum: 317bf72632116215fd98f72de1686f13
     Pseudo is Projector augmented-wave + core cor, Zval = 14.0
     Generated using 'atomic' code by A. Dal Corso  v.7.2
     Shape of augmentation charge: PSQ
     Using radial grid of 1229 points,  6 beta functions with:
                l(1) =   0
                l(2) =   0
                l(3) =   1
                l(4) =   1
                l(5) =   2
                l(6) =   2
     Q(r) pseudized with 0 coefficients

     PseudoPot. # 2 for S  read from file:
     ./pseudo/S.pbe-n-kjpaw_psl.1.0.0.UPF
     MD5 check sum: 8b7b5302570d38d5e87fed6a1065abda
     Pseudo is Projector augmented-wave + core cor, Zval =  6.0
     Generated using 'atomic' code by A. Dal Corso  v.7.2
     Shape of augmentation charge: PSQ
     Using radial grid of 1151 points,  6 beta functions with:
                l(1) =   0
                l(2) =   0
                l(3) =   1
                l(4) =   1
                l(5) =   2
                l(6) =   2
     Q(r) pseudized with 0 coefficients

     PseudoPot. # 3 for Pt read from file:
     ./pseudo/Pt.pbe-spfn-kjpaw_psl.1.0.0.UPF
     MD5 check sum: 620096ebf4e6ebacc94de60fd67efcb5
     Pseudo is Projector augmented-wave + core cor, Zval = 32.0
     Generated using 'atomic' code by A. Dal Corso  v.7.2
     Shape of augmentation charge: PSQ
     Using radial grid of 1277 points,  8 beta functions with:
                l(1) =   0
                l(2) =   0
                l(3) =   1
                l(4) =   1
                l(5) =   2
                l(6) =   2
                l(7) =   3
                l(8) =   3
     Q(r) pseudized with 0 coefficients

     PseudoPot. # 4 for Pd read from file:
     ./pseudo/Pd.pbe-spn-kjpaw_psl.1.0.0.UPF
     MD5 check sum: a60571a671f2502b8a6a4569d20a6edb
     Pseudo is Projector augmented-wave + core cor, Zval = 18.0
     Generated using 'atomic' code by A. Dal Corso  v.7.2
     Shape of augmentation charge: PSQ
     Using radial grid of 1235 points,  6 beta functions with:
                l(1) =   0
                l(2) =   0
                l(3) =   1
                l(4) =   1
                l(5) =   2
                l(6) =   2
     Q(r) pseudized with 0 coefficients

     atomic species   valence    mass     pseudopotential
     Mo               14.00    95.95000     Mo( 1.00)
     S                 6.00    32.06000     S ( 1.00)
     Pt               32.00   195.08400     Pt( 1.00)
     Pd               18.00   106.42000     Pd( 1.00)

     No symmetry found

   Cartesian axes

     site n.     atom                  positions (alat units)
         1        Mo     tau(   1) = (   0.1246074   0.2157200   0.4826345  )
         2        Mo     tau(   2) = (   0.1250004   0.0721694  -0.4825273  )
         3        Mo     tau(   3) = (   0.0000068   0.1443549  -0.0000406  )
         4        S      tau(   4) = (   0.0000004   0.0000006  -0.6064556  )
         5        S      tau(   5) = (   0.1249873   0.0722031  -0.1241756  )
         6        S      tau(   6) = (   0.0000973   0.1450650   0.3573519  )
         7        S      tau(   7) = (   0.0000004   0.0000005  -0.3584711  )
         8        S      tau(   8) = (   0.1249847   0.0720950   0.1240801  )
         9        S      tau(   9) = (  -0.0005301   0.1434694   0.6062599  )
        10        Mo     tau(  10) = (  -0.0009156   0.4330317   0.4832560  )
        11        Mo     tau(  11) = (   0.0000001   0.2886759  -0.4825273  )
        12        Mo     tau(  12) = (  -0.1249829   0.3608507   0.0000027  )
        13        S      tau(  13) = (  -0.1249999   0.2165071  -0.6064556  )
        14        S      tau(  14) = (   0.0000128   0.2886930  -0.1241006  )
        15        S      tau(  15) = (  -0.1248837   0.3612581   0.3580377  )
        16        S      tau(  16) = (  -0.1249998   0.2165070  -0.3584711  )
        17        S      tau(  17) = (   0.0000764   0.2887257   0.1242499  )
        18        S      tau(  18) = (  -0.1253220   0.3603286   0.6073134  )
        19        Mo     tau(  19) = (  -0.1249684   0.6493789   0.4818062  )
        20        Mo     tau(  20) = (  -0.1250002   0.5051824  -0.4825273  )
        21        Mo     tau(  21) = (  -0.2500040   0.5773207  -0.0001409  )
        22        S      tau(  22) = (  -0.2500002   0.4330136  -0.6064556  )
        23        S      tau(  23) = (  -0.1249903   0.5051158  -0.1241917  )
        24        S      tau(  24) = (  -0.2499555   0.5769406   0.3578597  )
        25        S      tau(  25) = (  -0.2500001   0.4330135  -0.3584711  )
        26        S      tau(  26) = (  -0.1249930   0.5052458   0.1241101  )
        27        S      tau(  27) = (  -0.2497899   0.5778453   0.6063597  )
        28        Mo     tau(  28) = (   0.2497834  -0.0005160   0.4806710  )
        29        Mo     tau(  29) = (  -0.2500004   0.7216889  -0.4825273  )
        30        Mo     tau(  30) = (  -0.3750188   0.7938286  -0.0001549  )
        31        S      tau(  31) = (  -0.3750004   0.6495201  -0.6064556  )
        32        S      tau(  32) = (  -0.2500074   0.7216649  -0.1242513  )
        33        S      tau(  33) = (  -0.3752234   0.7935039   0.3566636  )
        34        S      tau(  34) = (  -0.3750004   0.6495200  -0.3584711  )
        35        S      tau(  35) = (  -0.2499996   0.7216607   0.1240200  )
        36        S      tau(  36) = (  -0.3746819   0.7948899   0.6057341  )
        37        Mo     tau(  37) = (   0.3750034   0.2123618   0.4807886  )
        38        Mo     tau(  38) = (   0.3750004   0.0721694  -0.4825273  )
        39        Mo     tau(  39) = (   0.2499981   0.1443415  -0.0000413  )
        40        S      tau(  40) = (   0.2500004   0.0000006  -0.6064556  )
        41        S      tau(  41) = (   0.3750280   0.0722231  -0.1241519  )
        42        S      tau(  42) = (   0.2489233   0.1437373   0.3564531  )
        43        S      tau(  43) = (   0.2500004   0.0000005  -0.3584711  )
        44        S      tau(  44) = (   0.3749877   0.0720947   0.1241383  )
        45        S      tau(  45) = (   0.2497122   0.1423104   0.6055821  )
        46        Mo     tau(  46) = (   0.2490774   0.4329018   0.4862977  )
        47        Mo     tau(  47) = (   0.2500001   0.2886759  -0.4825273  )
        48        Mo     tau(  48) = (   0.1250319   0.3608540  -0.0000126  )
        49        S      tau(  49) = (   0.1250001   0.2165071  -0.6064556  )
        50        S      tau(  50) = (   0.2500259   0.2886851  -0.1240979  )
        51        S      tau(  51) = (   0.1263042   0.3620125   0.3614359  )
        52        S      tau(  52) = (   0.1250002   0.2165070  -0.3584711  )
        53        S      tau(  53) = (   0.2500168   0.2886898   0.1242904  )
        54        S      tau(  54) = (   0.1173694   0.3566575   0.6132890  )
        55        Mo     tau(  55) = (   0.1240062   0.6506471   0.4823696  )
        56        Mo     tau(  56) = (   0.1249998   0.5051824  -0.4825273  )
        57        Mo     tau(  57) = (   0.0000191   0.5773226  -0.0001255  )
        58        S      tau(  58) = (  -0.0000002   0.4330136  -0.6064556  )
        59        S      tau(  59) = (   0.1250359   0.5051398  -0.1241676  )
        60        S      tau(  60) = (   0.0000697   0.5768181   0.3580317  )
[...]
       133        S      tau( 133) = (   0.4999999   0.4330135  -0.3584711  )
       134        S      tau( 134) = (   0.6250095   0.5052263   0.1241915  )
       135        S      tau( 135) = (   0.5006407   0.5846211   0.6091832  )
       136        Mo     tau( 136) = (   0.0000410   0.0004185   0.4809769  )
       137        Mo     tau( 137) = (   0.4999996   0.7216889  -0.4825273  )
       138        Mo     tau( 138) = (   0.3750036   0.7938273  -0.0000272  )
       139        S      tau( 139) = (   0.3749996   0.6495201  -0.6064556  )
       140        S      tau( 140) = (   0.4999499   0.7216482  -0.1241729  )
       141        S      tau( 141) = (   0.3750006   0.7941054   0.3569117  )
       142        S      tau( 142) = (   0.3749996   0.6495200  -0.3584711  )
       143        S      tau( 143) = (   0.5000314   0.7216102   0.1241515  )
       144        S      tau( 144) = (   0.3752329   0.7966920   0.6062052  )
       145        Pt     tau( 145) = (   0.2580795   0.4348292   0.7095693  )
       146        Pd     tau( 146) = (   0.4899479   0.4358638   0.7204770  )
       147        Pd     tau( 147) = (   0.1239762   0.6506374   0.7381500  )

     DFT-D3 Dispersion Correction (3-body terms):
       Reference C6 values for interpolation:

[...]
   -40.5967 -40.5965 -40.5925 -40.5893 -40.5852 -40.5664 -40.5660 -40.5572
   -40.5550 -40.5503 -40.5467 -40.5419 -40.5288 -40.5249 -40.5156 -40.5004
   -40.4823 -40.4762 -40.4645 -20.0720 -19.9025 -19.8832 -19.8268 -19.7261
   -19.6971 -19.4991 -19.4816 -19.4408 -19.4314 -19.2980 -19.2900 -19.1322
   -19.0070 -18.7873 -18.7833 -18.7541 -18.7529 -18.7495 -18.7472 -18.7093
   -18.6940 -18.6544 -18.6385 -18.6245 -18.6162 -18.6040 -18.5964 -18.5798
   -18.5639 -18.5271 -18.5038 -18.5006 -18.4766 -18.4511 -18.4390 -18.4315
   -18.4135 -18.3941 -18.3613 -18.3280 -18.3089 -18.2775 -18.2674 -18.2432
   -18.2418 -18.2044 -18.1981 -18.1669 -18.1589 -18.1394 -18.1392 -18.1392
   -18.1391 -18.1308 -18.1203 -18.1093 -18.0991 -18.0705 -18.0693 -18.0628
   -18.0582 -18.0538 -18.0500 -18.0438 -18.0213 -18.0144 -18.0066 -17.9945
   -17.9918 -17.9646 -17.9584 -17.9553 -17.9502 -17.9461 -17.9371 -17.8991
   -17.8965 -17.8878 -17.8816 -17.8758 -17.8758 -17.8365 -17.8345 -17.8196
   -17.8163 -17.8162 -17.8117 -17.8011 -17.7996 -17.7931 -17.7778 -17.7569
   -17.7562 -17.7019 -17.6938 -12.1318 -11.8866 -11.7847 -11.7448 -11.6928
   -11.5974 -11.5353 -11.4972 -11.4849 -11.4832 -11.4798 -11.4699 -11.4663
   -11.4529 -11.4235 -11.3977 -11.3873 -11.3836 -11.3808 -11.3731 -11.3287
   -11.3135 -11.3046 -11.2979 -11.2925 -11.2687 -11.2687 -11.2385 -11.2234
   -11.2231 -11.1976 -11.1775 -11.1682 -11.1674 -11.1512 -11.1457 -11.0673
   -11.0531 -11.0245 -11.0112 -10.9907 -10.9769 -10.9648 -10.9285 -10.9254
   -10.9218 -10.9163 -10.9122 -10.8880 -10.8685 -10.8603 -10.8594 -10.8480
   -10.8424 -10.8418 -10.8398 -10.8382 -10.8360 -10.8237 -10.8027 -10.7788
   -10.7758 -10.7716 -10.7663 -10.6758 -10.6580 -10.6065 -10.5715 -10.5172
   -10.5106 -10.4854 -10.4377 -10.3703 -10.3366 -10.2826 -10.2572 -10.1694
   -10.1424 -10.1277 -10.1238 -10.1159 -10.0984 -10.0452 -10.0354 -10.0245
   -10.0101  -9.9701  -9.9617  -9.9560  -9.9429  -9.9389  -9.9316  -9.9203
    -9.9110  -9.9100  -9.8956  -9.8836  -9.8561  -9.8272  -9.7943  -9.7759
    -9.7737  -9.7581  -9.7501  -9.7489  -9.7264  -9.7218  -9.7206  -9.7093
    -9.7036  -9.6835  -9.6773  -9.6531  -9.6379  -9.6275  -9.6213  -9.5911
    -9.5721  -9.5653  -9.5465  -9.5408  -9.5372  -9.5275  -9.5049  -9.4869
    -9.4821  -9.4534  -9.4170  -9.3934  -9.3444  -9.3082  -9.2926  -9.2282
    -9.2086  -9.2067  -9.1920  -9.1842  -9.1665  -9.1588  -9.1436  -9.1255
    -9.1204  -9.1094  -9.0973  -9.0731  -9.0593  -9.0497  -9.0430  -9.0326
    -9.0289  -9.0172  -9.0111  -9.0045  -8.9847  -8.9729  -8.9631  -8.9543
    -8.9493  -8.9460  -8.9447  -8.9198  -8.9129  -8.9004  -8.8929  -8.8788
    -8.8703  -8.8679  -8.8628  -8.8561  -8.8532  -8.8514  -8.8505  -8.8417
[...]
    -3.7918  -3.7656  -3.7502  -3.6964  -3.6369  -3.6176  -3.6120  -3.6084
    -3.6046  -3.5988  -3.5912  -3.5909  -3.5713  -3.5673  -3.5559  -3.5204
    -3.5138  -3.5093  -3.4957  -3.4846  -3.4843  -3.4820  -3.4782  -3.4740
    -3.4331  -3.4087  -3.4014  -3.3866  -3.3751  -3.3670  -3.3592  -3.3584
    -3.3450  -3.3309  -3.3250  -3.3225  -3.3203  -3.3079  -3.2986  -3.2829
    -3.2827  -3.2815  -3.2808  -3.2609  -3.2493  -3.2431  -3.2365  -3.2329
    -3.2248  -3.2165  -3.2119  -3.2020  -3.1978  -3.1912  -3.1716  -3.1460
    -3.1424  -3.1337  -3.1234  -3.0911  -3.0781  -3.0772  -3.0582  -3.0519
    -3.0374  -3.0367  -3.0193  -3.0190  -3.0187  -3.0185  -2.9848  -2.9749
    -2.9710  -2.9699  -2.9484  -2.9453  -2.9420  -2.9366  -2.9304  -2.9264
    -2.9206  -2.9123  -2.9024  -2.8946  -2.8873  -2.8840  -2.8619  -2.8614
    -2.8483  -2.8382  -2.8220  -2.8156  -2.8140  -2.7998  -2.7545  -2.7518
    -2.7213  -2.7201  -2.6875  -2.6738  -2.6560  -2.6548  -2.6437  -2.6421
    -2.5779  -2.5732  -2.5521  -2.5326  -2.5081  -2.5032  -2.4993  -2.4871
    -2.4423  -2.4003  -2.3809  -2.3318  -2.3243  -2.3007

     the Fermi energy is    -4.6669 ev

!    total energy              =  -26543.77499292 Ry
     total all-electron energy =   -522376.371301 Ry
     estimated scf accuracy    <          5.5E-09 Ry
     smearing contrib. (-TS)   =      -0.00000004 Ry
     internal energy E=F+TS    =  -26543.77499288 Ry

     The total energy is F=E-TS. E is the sum of the following terms:
     one-electron contribution =  511131.12622575 Ry
     hartree contribution      = -255711.14701040 Ry
     xc contribution           =   -1565.68547140 Ry
     ewald contribution        = -263950.06053404 Ry
     DFT-D3 Dispersion         =      -4.05961120 Ry
     one-center paw contrib.   =  -16443.94859159 Ry

     convergence has been achieved in   9 iterations

     negative rho (up, down):  9.631E-04 0.000E+00

     Forces acting on atoms (cartesian axes, Ry/au):

     atom    1 type  1   force =    -0.00012505    0.00013072    0.00002737
     atom    2 type  1   force =     0.00000262   -0.00000099    0.00190375
     atom    3 type  1   force =    -0.00000011   -0.00000120   -0.00001477
     atom    4 type  2   force =     0.00000108    0.00000194   -0.00328041
     atom    5 type  2   force =    -0.00000159    0.00000854   -0.00002131
     atom    6 type  2   force =     0.00007767   -0.00015625    0.00006036
     atom    7 type  2   force =     0.00000555   -0.00000649    0.00151934
     atom    8 type  2   force =     0.00000321   -0.00002539   -0.00004992
     atom    9 type  2   force =     0.00016135   -0.00011623   -0.00021927
     atom   10 type  1   force =    -0.00013620    0.00033567    0.00012818
     atom   11 type  1   force =     0.00000082    0.00000206    0.00190339
     atom   12 type  1   force =    -0.00000438    0.00001225    0.00001501
     atom   13 type  2   force =     0.00000132    0.00000159   -0.00327993
     atom   14 type  2   force =     0.00001221    0.00000392    0.00000743
     atom   15 type  2   force =    -0.00014003   -0.00004972   -0.00022634
     atom   16 type  2   force =    -0.00000111   -0.00000043    0.00151370
     atom   17 type  2   force =    -0.00000961   -0.00000482    0.00004409
     atom   18 type  2   force =    -0.00016888   -0.00029051    0.00005469
     atom   19 type  1   force =     0.00027292    0.00004201   -0.00000685
     atom   20 type  1   force =     0.00000032    0.00000209    0.00190106
     atom   21 type  1   force =     0.00000210    0.00000068   -0.00000001
     atom   22 type  2   force =     0.00000170    0.00000166   -0.00328002
     atom   23 type  2   force =    -0.00002172   -0.00000034    0.00001422
     atom   24 type  2   force =     0.00010590   -0.00008026   -0.00020760
     atom   25 type  2   force =    -0.00000763    0.00000245    0.00150540
     atom   26 type  2   force =    -0.00003121    0.00000107    0.00002389
     atom   27 type  2   force =     0.00017264   -0.00012998   -0.00009091
     atom   28 type  1   force =     0.00019304   -0.00014673   -0.00007352
     atom   29 type  1   force =     0.00000026    0.00000286    0.00189880
     atom   30 type  1   force =     0.00000830   -0.00000793   -0.00002989
     atom   31 type  2   force =     0.00000138    0.00000191   -0.00328035
     atom   32 type  2   force =     0.00002521   -0.00001781   -0.00000234
     atom   33 type  2   force =     0.00009444   -0.00013952   -0.00003233
     atom   34 type  2   force =    -0.00000218   -0.00000056    0.00151203
     atom   35 type  2   force =    -0.00000026   -0.00000651    0.00000423
     atom   36 type  2   force =     0.00005370    0.00011964   -0.00019905
     atom   37 type  1   force =     0.00002102   -0.00025910   -0.00024841
     atom   38 type  1   force =     0.00000037    0.00000069    0.00189654
     atom   39 type  1   force =     0.00001233   -0.00000095   -0.00000910
     atom   40 type  2   force =     0.00000123    0.00000145   -0.00328095
     atom   41 type  2   force =     0.00001052   -0.00001051   -0.00000590
     atom   42 type  2   force =    -0.00014881    0.00009724    0.00023289
     atom   43 type  2   force =     0.00000609    0.00000151    0.00150204
     atom   44 type  2   force =    -0.00000211    0.00001254    0.00002338
     atom   45 type  2   force =    -0.00013367    0.00004855   -0.00012043
     atom   46 type  1   force =     0.00007859    0.00004370    0.00031226
     atom   47 type  1   force =     0.00000311    0.00000064    0.00189668
     atom   48 type  1   force =    -0.00000001   -0.00000874    0.00001493
     atom   49 type  2   force =     0.00000074    0.00000169   -0.00327986
     atom   50 type  2   force =    -0.00002264   -0.00000957   -0.00002791
     atom   51 type  2   force =     0.00003858    0.00005356    0.00006125
     atom   52 type  2   force =     0.00000827    0.00000205    0.00151930
     atom   53 type  2   force =     0.00001284    0.00000353    0.00003819
     atom   54 type  2   force =    -0.00048283    0.00019881    0.00012921
     atom   55 type  1   force =     0.00014260   -0.00000726    0.00015341
     atom   56 type  1   force =     0.00000120    0.00000204    0.00190100
     atom   57 type  1   force =    -0.00001999    0.00000537    0.00000412
     atom   58 type  2   force =     0.00000094    0.00000159   -0.00328020
     atom   59 type  2   force =     0.00001384    0.00000704    0.00002561
     atom   60 type  2   force =     0.00016337    0.00008070    0.00000254
[...]
     atom  133 type  2   force =    -0.00000011   -0.00000634    0.00151193
     atom  134 type  2   force =    -0.00000349    0.00002907   -0.00002391
     atom  135 type  2   force =    -0.00014484    0.00014505   -0.00011623
     atom  136 type  1   force =     0.00001467   -0.00024467   -0.00022966
     atom  137 type  1   force =     0.00000209    0.00000056    0.00189971
     atom  138 type  1   force =    -0.00000481    0.00002369   -0.00000202
     atom  139 type  2   force =     0.00000113    0.00000205   -0.00328023
     atom  140 type  2   force =    -0.00002100    0.00002540   -0.00001442
     atom  141 type  2   force =    -0.00005294   -0.00047708   -0.00003184
     atom  142 type  2   force =     0.00000568   -0.00000838    0.00151326
     atom  143 type  2   force =     0.00001185    0.00000441   -0.00003203
     atom  144 type  2   force =     0.00006817    0.00019421   -0.00007726
     atom  145 type  3   force =    -0.00024281    0.00050253    0.00089470
     atom  146 type  4   force =    -0.00005200   -0.00022889   -0.00036191
     atom  147 type  4   force =    -0.00039755    0.00004190   -0.00041506

     Total force =     0.002632     Total SCF correction =     0.000350
     SCF correction compared to forces is large: reduce conv_thr to get better values
     Energy error            =      1.3E-05 Ry
     Gradient error          =      8.9E-04 Ry/Bohr

     bfgs converged in  32 scf cycles and  31 bfgs steps
     (criteria: energy <  1.0E-04 Ry, force <  1.0E-03 Ry/Bohr)

     End of BFGS Geometry Optimization

     Final energy             =  -26543.7749929173 Ry

     File ./outdir/pwscf.bfgs deleted, as requested
Begin final coordinates

ATOMIC_POSITIONS (angstrom)
Mo               1.5708415037        2.7243641772        6.0809080234
Mo               1.5769197498        0.9104407117       -6.0872367793    0   0   0
Mo              -0.0001685882        1.8212177693       -0.0010496686
S                0.0000044503        0.0000077495       -7.6506323570    0   0   0
S                1.5771990102        0.9101352751       -1.5654898453
S               -0.0030622055        1.8367575293        4.5024941743
S                0.0000053241        0.0000068460       -4.5222282367    0   0   0
S                1.5760593984        0.9105743530        1.5661648502
S               -0.0045804209        1.8153901806        7.6451426129
Mo              -0.0198370771        5.4512090027        6.0926951448
Mo               0.0000011799        3.6417399547       -6.0872367793    0   0   0
Mo              -1.5770456737        4.5521489736       -0.0005285847
S               -1.5769141197        2.7313069925       -7.6506323570    0   0   0
S                0.0001719566        3.6420614852       -1.5661110191
S               -1.5858662596        4.5550390700        4.5144498082
S               -1.5769132459        2.7313060890       -4.5222282367    0   0   0
S                0.0001510325        3.6423972795        1.5663847183
S               -1.5874434718        4.5396786715        7.6609888444
Mo              -1.5906799609        8.1944768512        6.0805197740
Mo              -1.5769173901        6.3730391977       -6.0872367793    0   0   0
Mo              -3.1535757015        7.2830208467       -0.0006783067
S               -3.1538326896        5.4626062355       -7.6506323570    0   0   0
S               -1.5768929234        6.3726950466       -1.5664626792
S               -3.1485642020        7.2761024722        4.5063620257
S               -3.1538318159        5.4626053320       -4.5222282367    0   0   0
S               -1.5758858664        6.3732180210        1.5661808418
S               -3.1647953190        7.2929977404        7.6494407865
Mo               3.1500169354       -0.0007470926        6.0630949507
Mo              -3.1538359601        9.1043384407       -6.0872367793    0   0   0
Mo              -4.7310053332       10.0143478391        0.0001554548
S               -4.7307512596        8.1939054785       -7.6506323570    0   0   0
S               -3.1542153435        9.1042730280       -1.5657666810
S               -4.7302129894       10.0203952274        4.4910145540
S               -4.7307503859        8.1939045750       -4.5222282367    0   0   0
S               -3.1534251033        9.1037600981        1.5664472935
S               -4.7291707836       10.0288298285        7.6328861108
Mo               4.7306799090        2.6890370501        6.0722711213
Mo               4.7307503218        0.9104407117       -6.0872367793    0   0   0
Mo               3.1538508035        1.8208945522        0.0005097679
S                3.1538350223        0.0000077495       -7.6506323570    0   0   0
S                4.7306601576        0.9106105569       -1.5652708809
S                3.1461335571        1.8176742469        4.4956715161
S                3.1538358961        0.0000068460       -4.5222282367    0   0   0
S                4.7307416639        0.9096404194        1.5671105085
S                3.1444387449        1.7999752310        7.6394246254
Mo               3.1463448916        5.4471120104        6.1014906140
Mo               3.1538317519        3.6417399547       -6.0872367793    0   0   0
Mo               1.5771743468        4.5523706796       -0.0002110890
S                1.5769164523        2.7313069925       -7.6506323570    0   0   0
S                3.1545406894        3.6416529600       -1.5647520974
S                1.5783864954        4.5599757720        4.5386534887
S                1.5769173261        2.7313060890       -4.5222282367    0   0   0
S                3.1536278426        3.6421671582        1.5684660436
S                1.5034184196        4.5116754358        7.7093871568
Mo               1.5649397719        8.2110894631        6.1072305336
Mo               1.5769131819        6.3730391977       -6.0872367793    0   0   0
Mo               0.0004114701        7.2830867221       -0.0012543915
S               -0.0000021176        5.4626062355       -7.6506323570    0   0   0
S                1.5776004711        6.3726768110       -1.5662164267
S                0.0034020554        7.2836340565        4.5397939362
[...]
S                6.3076599001        5.4626053320       -4.5222282367    0   0   0
S                7.8855834655        6.3722565884        1.5670316735
S                6.3268327202        7.3886404831        7.6691890203
Mo               0.0018838676        0.0132750092        6.0605562086
Mo               6.3076557559        9.1043384407       -6.0872367793    0   0   0
Mo               4.7306288947       10.0144666612        0.0004112921
S                4.7307404564        8.1939054785       -7.6506323570    0   0   0
S                6.3074972859        9.1034173498       -1.5646374025
S                4.7281754959       10.0432096234        4.4871309615
S                4.7307413301        8.1939045750       -4.5222282367    0   0   0
S                6.3074291825        9.1035607288        1.5680981270
S                4.7447497675       10.0435958887        7.6359629951
Pt               3.2082912808        5.5619982884        9.0154665708
Pd               6.1712858215        5.5159504673        9.0652783963
Pd               1.6659853093        8.0379258284        9.0997780754
End final coordinates

     Writing all to output data dir ./outdir/pwscf.save/ :
     XML data file, charge density, pseudopotentials, collected wavefunctions

     General routines

     Parallel routines

   This run was terminated on:  17:30: 9   2Apr2024

   JOB DONE.