     Program PWSCF v.7.3 starts on  9Feb2024 at 20: 0:32

     Waiting for input...
     Reading input from standard input
Warning: card &CELL ignored
Warning: card / ignored

     Current dimensions of program PWSCF are:
     Max number of different atomic species (ntypx) = 10
     Max number of k-points (npk) =  40000
     Max angular momentum in pseudopotentials (lmaxx) =  4
     file Mo.pbe-spn-kjpaw_psl.1.0.0.UPF: wavefunction(s)  4S 4D renormalized
     file S.pbe-n-kjpaw_psl.1.0.0.UPF: wavefunction(s)  3S 3P renormalized
     file Pt.pbe-spfn-kjpaw_psl.1.0.0.UPF: wavefunction(s)  5P 4F renormalized

     R & G space division:  proc/nbgrp/npool/nimage =      36
     Subspace diagonalization in iterative solution of the eigenvalue problem:
     one sub-group per band group will be used

     Using Slab Decomposition

     bravais-lattice index     =            0
     lattice parameter (alat)  =      23.8395  a.u.
     unit-cell volume          =   28182.8498 (a.u.)^3
     number of atoms/cell      =          147
     number of atomic types    =            3
     number of electrons       =      1344.00
     number of Kohn-Sham states=          806
     kinetic-energy cutoff     =      77.0000  Ry
     charge density cutoff     =     539.0000  Ry
     scf convergence threshold =      1.0E-06
     mixing beta               =       0.2000
     number of iterations used =            8  plain     mixing
     energy convergence thresh.=      1.0E-04
     force convergence thresh. =      1.0E-03
     Exchange-correlation= SLA  PW   PBX  PBC
                           (   1   4   3   4   0   0   0)
     nstep                     =         1000

     Effective Screening Medium Method
     Boundary Conditions: Vacuum-Slab-Vacuum
     total charge in unit cell        =   0.0000
     grid points for fit at edges     =        4

     celldm(1)=  23.839504  celldm(2)=   0.000000  celldm(3)=   0.000000
     celldm(4)=   0.000000  celldm(5)=   0.000000  celldm(6)=   0.000000

     crystal axes: (cart. coord. in units of alat)
               a(1) = (   1.000000   0.000000   0.000000 )
               a(2) = (  -0.500001   0.866026   0.000000 )
               a(3) = (   0.000000   0.000000   2.401941 )

     reciprocal axes: (cart. coord. in units 2 pi/alat)
               b(1) = (  1.000000  0.577351  0.000000 )
               b(2) = (  0.000000  1.154700  0.000000 )
               b(3) = (  0.000000  0.000000  0.416330 )

     PseudoPot. # 1 for Mo read from file:
     ./pseudo/Mo.pbe-spn-kjpaw_psl.1.0.0.UPF
     MD5 check sum: 317bf72632116215fd98f72de1686f13
     Pseudo is Projector augmented-wave + core cor, Zval = 14.0
     Generated using 'atomic' code by A. Dal Corso  v.7.2
     Shape of augmentation charge: PSQ
     Using radial grid of 1229 points,  6 beta functions with:
                l(1) =   0
                l(2) =   0
                l(3) =   1
                l(4) =   1
                l(5) =   2
                l(6) =   2
     Q(r) pseudized with 0 coefficients

     PseudoPot. # 2 for S  read from file:
     ./pseudo/S.pbe-n-kjpaw_psl.1.0.0.UPF
     MD5 check sum: 8b7b5302570d38d5e87fed6a1065abda
     Pseudo is Projector augmented-wave + core cor, Zval =  6.0
     Generated using 'atomic' code by A. Dal Corso  v.7.2
     Shape of augmentation charge: PSQ
     Using radial grid of 1151 points,  6 beta functions with:
                l(1) =   0
                l(2) =   0
                l(3) =   1
                l(4) =   1
                l(5) =   2
                l(6) =   2
     Q(r) pseudized with 0 coefficients

     PseudoPot. # 3 for Pt read from file:
     ./pseudo/Pt.pbe-spfn-kjpaw_psl.1.0.0.UPF
     MD5 check sum: 620096ebf4e6ebacc94de60fd67efcb5
     Pseudo is Projector augmented-wave + core cor, Zval = 32.0
     Generated using 'atomic' code by A. Dal Corso  v.7.2
     Shape of augmentation charge: PSQ
     Using radial grid of 1277 points,  8 beta functions with:
                l(1) =   0
                l(2) =   0
                l(3) =   1
                l(4) =   1
                l(5) =   2
                l(6) =   2
                l(7) =   3
                l(8) =   3
     Q(r) pseudized with 0 coefficients

     atomic species   valence    mass     pseudopotential
     Mo               14.00    95.95000     Mo( 1.00)
     S                 6.00    32.06000     S ( 1.00)
     Pt               32.00   195.08400     Pt( 1.00)

     No symmetry found

   Cartesian axes

     site n.     atom                  positions (alat units)
         1        Mo     tau(   1) = (   0.1245154   0.2145629   0.4838883  )
         2        Mo     tau(   2) = (   0.1250004   0.0721694  -0.4825273  )
         3        Mo     tau(   3) = (   0.0000425   0.1442456   0.0000619  )
         4        S      tau(   4) = (   0.0000004   0.0000006  -0.6064556  )
         5        S      tau(   5) = (   0.1250289   0.0721378  -0.1240905  )
         6        S      tau(   6) = (   0.0004348   0.1425943   0.3589312  )
         7        S      tau(   7) = (   0.0000004   0.0000005  -0.3584711  )
         8        S      tau(   8) = (   0.1250590   0.0720566   0.1242171  )
         9        S      tau(   9) = (  -0.0003812   0.1430770   0.6082257  )
        10        Mo     tau(  10) = (  -0.0007514   0.4316905   0.4830160  )
        11        Mo     tau(  11) = (   0.0000001   0.2886759  -0.4825273  )
        12        Mo     tau(  12) = (  -0.1249521   0.3607434   0.0000147  )
        13        S      tau(  13) = (  -0.1249999   0.2165071  -0.6064556  )
        14        S      tau(  14) = (   0.0000696   0.2885943  -0.1240368  )
        15        S      tau(  15) = (  -0.1243620   0.3589267   0.3580713  )
        16        S      tau(  16) = (  -0.1249998   0.2165070  -0.3584711  )
        17        S      tau(  17) = (   0.0000810   0.2885804   0.1243185  )
        18        S      tau(  18) = (  -0.1257647   0.3594678   0.6068568  )
        19        Mo     tau(  19) = (  -0.1258132   0.6483948   0.4805624  )
        20        Mo     tau(  20) = (  -0.1250002   0.5051824  -0.4825273  )
        21        Mo     tau(  21) = (  -0.2499883   0.5772682  -0.0000419  )
        22        S      tau(  22) = (  -0.2500002   0.4330136  -0.6064556  )
        23        S      tau(  23) = (  -0.1249379   0.5050979  -0.1240947  )
        24        S      tau(  24) = (  -0.2506625   0.5759186   0.3568926  )
        25        S      tau(  25) = (  -0.2500001   0.4330135  -0.3584711  )
        26        S      tau(  26) = (  -0.1250441   0.5050577   0.1241569  )
        27        S      tau(  27) = (  -0.2487337   0.5760113   0.6060824  )
        28        Mo     tau(  28) = (   0.2499313  -0.0010413   0.4821860  )
        29        Mo     tau(  29) = (  -0.2500004   0.7216889  -0.4825273  )
        30        Mo     tau(  30) = (  -0.3749657   0.7937917  -0.0000260  )
        31        S      tau(  31) = (  -0.3750004   0.6495201  -0.6064556  )
        32        S      tau(  32) = (  -0.2499441   0.7216334  -0.1241298  )
        33        S      tau(  33) = (  -0.3753987   0.7929794   0.3583883  )
        34        S      tau(  34) = (  -0.3750004   0.6495200  -0.3584711  )
        35        S      tau(  35) = (  -0.2499697   0.7216106   0.1241587  )
        36        S      tau(  36) = (  -0.3740548   0.7924718   0.6070428  )
        37        Mo     tau(  37) = (   0.3754903   0.2138312   0.4824355  )
        38        Mo     tau(  38) = (   0.3750004   0.0721694  -0.4825273  )
        39        Mo     tau(  39) = (   0.2500190   0.1443049   0.0000251  )
        40        S      tau(  40) = (   0.2500004   0.0000006  -0.6064556  )
        41        S      tau(  41) = (   0.3750395   0.0721655  -0.1240658  )
        42        S      tau(  42) = (   0.2492498   0.1434297   0.3583124  )
        43        S      tau(  43) = (   0.2500004   0.0000005  -0.3584711  )
        44        S      tau(  44) = (   0.3749990   0.0721134   0.1242290  )
        45        S      tau(  45) = (   0.2505186   0.1425747   0.6070242  )
        46        Mo     tau(  46) = (   0.2489619   0.4303408   0.4857216  )
        47        Mo     tau(  47) = (   0.2500001   0.2886759  -0.4825273  )
        48        Mo     tau(  48) = (   0.1250526   0.3607813   0.0000840  )
        49        S      tau(  49) = (   0.1250001   0.2165071  -0.6064556  )
        50        S      tau(  50) = (   0.2500419   0.2886606  -0.1240379  )
        51        S      tau(  51) = (   0.1261759   0.3597087   0.3613462  )
        52        S      tau(  52) = (   0.1250002   0.2165070  -0.3584711  )
        53        S      tau(  53) = (   0.2500376   0.2886120   0.1243390  )
        54        S      tau(  54) = (   0.1185564   0.3555008   0.6138384  )
        55        Mo     tau(  55) = (   0.1202279   0.6507949   0.4802728  )
        56        Mo     tau(  56) = (   0.1249998   0.5051824  -0.4825273  )
        57        Mo     tau(  57) = (   0.0000374   0.5772595   0.0000671  )
        58        S      tau(  58) = (  -0.0000002   0.4330136  -0.6064556  )
        59        S      tau(  59) = (   0.1250566   0.5051315  -0.1240039  )
        60        S      tau(  60) = (  -0.0017492   0.5751181   0.3561394  )
[...]
       133        S      tau( 133) = (   0.4999999   0.4330135  -0.3584711  )
       134        S      tau( 134) = (   0.6249857   0.5051595   0.1242674  )
       135        S      tau( 135) = (   0.5084858   0.5722242   0.6106609  )
       136        Mo     tau( 136) = (   0.0003958  -0.0008070   0.4838665  )
       137        Mo     tau( 137) = (   0.4999996   0.7216889  -0.4825273  )
       138        Mo     tau( 138) = (   0.3750498   0.7937581   0.0000905  )
       139        S      tau( 139) = (   0.3749996   0.6495201  -0.6064556  )
       140        S      tau( 140) = (   0.5000109   0.7216246  -0.1240696  )
       141        S      tau( 141) = (   0.3755073   0.7912798   0.3612018  )
       142        S      tau( 142) = (   0.3749996   0.6495200  -0.3584711  )
       143        S      tau( 143) = (   0.5000873   0.7215932   0.1243026  )
       144        S      tau( 144) = (   0.3753273   0.8000111   0.6138078  )
       145        Pt     tau( 145) = (   0.2576892   0.4411371   0.7122167  )
       146        Pt     tau( 146) = (   0.3705587   0.6371970   0.7119237  )
       147        Pt     tau( 147) = (   0.1202506   0.6507959   0.7322841  )

     DFT-D3 Dispersion Correction (3-body terms):
       Reference C6 values for interpolation:

         atom   Coordination number   C6
         S          0.000           268.01
         S          0.995           261.99
         S          1.990           251.62
         Mo         0.000          1691.79
         Mo         1.942          1004.01
         Mo        11.056           674.22
         Pt         0.000           782.29
         Pt         1.919           692.72
         Pt         6.667           673.75

       Values used:

         atom   Coordination number  R0_AB[au]  C6      C8
         Mo        10.221            3.547    674.22  77634.20
         Mo        10.189            3.547    674.22  77634.20
         Mo        10.201            3.547    674.22  77634.20
[...]
   -40.7692 -40.7677 -40.7675 -40.7675 -40.7670 -40.7632 -40.7599 -40.7554
   -40.7531 -40.7485 -40.7479 -40.7437 -40.7423 -40.7313 -40.7313 -40.7235
   -40.7204 -40.7181 -40.7062 -40.7012 -40.7005 -40.6897 -40.6863 -40.6792
   -40.6780 -40.6697 -40.6554 -40.6534 -40.6464 -40.6252 -40.6209 -40.5996
   -40.5920 -20.9915 -20.0312 -20.0236 -19.9311 -19.8814 -19.8102 -19.7255
   -19.6033 -19.5891 -19.5370 -19.4542 -19.4086 -19.3079 -18.9674 -18.9405
   -18.9003 -18.8952 -18.8862 -18.8835 -18.8634 -18.8583 -18.8509 -18.7951
   -18.7662 -18.7612 -18.7538 -18.7448 -18.7333 -18.7097 -18.6964 -18.6585
   -18.6374 -18.6336 -18.5993 -18.5958 -18.5754 -18.5698 -18.5407 -18.5299
   -18.4812 -18.4560 -18.4345 -18.4283 -18.4085 -18.3903 -18.3724 -18.3445
   -18.3205 -18.3128 -18.2999 -18.2800 -18.2740 -18.2737 -18.2736 -18.2735
   -18.2487 -18.2365 -18.2337 -18.2079 -18.2043 -18.1963 -18.1938 -18.1918
   -18.1872 -18.1708 -18.1588 -18.1394 -18.1361 -18.1296 -18.1077 -18.0988
   -18.0932 -18.0915 -18.0819 -18.0656 -18.0566 -18.0361 -18.0341 -18.0170
   -18.0103 -18.0103 -18.0036 -17.9704 -17.9688 -17.9513 -17.9503 -17.9474
   -17.9346 -17.9342 -17.9243 -17.9166 -17.9088 -17.8893 -17.8892 -17.8341
   -17.8224 -13.0286 -12.7169 -12.6816 -11.8797 -11.8284 -11.7649 -11.6332
   -11.6307 -11.6198 -11.6188 -11.6170 -11.6066 -11.5960 -11.5901 -11.5391
   -11.5341 -11.5247 -11.5193 -11.5058 -11.4666 -11.4647 -11.4645 -11.4307
   -11.4227 -11.4139 -11.4033 -11.4033 -11.3919 -11.3605 -11.3576 -11.3531
   -11.3072 -11.3067 -11.2971 -11.2969 -11.2702 -11.2691 -11.1901 -11.1578
   -11.1360 -11.1200 -11.1175 -11.0989 -11.0930 -11.0681 -11.0592 -11.0563
   -11.0510 -11.0080 -11.0054 -10.9968 -10.9804 -10.9769 -10.9767 -10.9764
   -10.9742 -10.9602 -10.9576 -10.9553 -10.9286 -10.9155 -10.9075 -10.9002
   -10.8972 -10.8841 -10.7797 -10.7463 -10.7122 -10.6800 -10.6385 -10.6301
   -10.5394 -10.5073 -10.5021 -10.4294 -10.4102 -10.3498 -10.3135 -10.2760
   -10.2661 -10.2601 -10.2525 -10.2008 -10.1782 -10.1634 -10.1466 -10.1072
   -10.0962 -10.0831 -10.0791 -10.0765 -10.0689 -10.0614 -10.0511 -10.0432
   -10.0306 -10.0279 -10.0193  -9.9735  -9.9509  -9.9391  -9.9050  -9.9011
    -9.8801  -9.8755  -9.8646  -9.8585  -9.8530  -9.8479  -9.8448  -9.8286
    -9.8048  -9.7992  -9.7724  -9.7677  -9.7540  -9.7387  -9.7293  -9.6965
    -9.6904  -9.6770  -9.6756  -9.6368  -9.6333  -9.6169  -9.6035  -9.6011
    -9.5476  -9.5133  -9.4830  -9.4388  -9.4122  -9.3629  -9.3554  -9.3462
    -9.3369  -9.3181  -9.3172  -9.2871  -9.2869  -9.2694  -9.2603  -9.2591
    -9.2339  -9.2246  -9.1942  -9.1858  -9.1847  -9.1729  -9.1716  -9.1506
    -9.1407  -9.1393  -9.1181  -9.1123  -9.0932  -9.0927  -9.0909  -9.0850
[...]
    -3.8591  -3.8420  -3.7956  -3.7658  -3.7640  -3.7457  -3.7439  -3.7376
    -3.7372  -3.7260  -3.7253  -3.7110  -3.6769  -3.6486  -3.6414  -3.6387
    -3.6333  -3.6241  -3.6209  -3.6166  -3.6103  -3.5994  -3.5819  -3.5773
    -3.5450  -3.5307  -3.5118  -3.5052  -3.4930  -3.4912  -3.4707  -3.4650
    -3.4626  -3.4575  -3.4554  -3.4511  -3.4281  -3.4176  -3.4169  -3.4161
    -3.4157  -3.4024  -3.3908  -3.3858  -3.3730  -3.3719  -3.3610  -3.3464
    -3.3397  -3.3377  -3.3320  -3.3238  -3.3112  -3.2939  -3.2898  -3.2728
    -3.2507  -3.2476  -3.2130  -3.2105  -3.1864  -3.1760  -3.1736  -3.1651
    -3.1629  -3.1534  -3.1532  -3.1514  -3.1501  -3.1199  -3.1073  -3.1060
    -3.1048  -3.0949  -3.0883  -3.0799  -3.0744  -3.0583  -3.0543  -3.0393
    -3.0349  -3.0308  -3.0227  -3.0179  -3.0144  -2.9913  -2.9778  -2.9755
    -2.9496  -2.9472  -2.9355  -2.9047  -2.8745  -2.8659  -2.8475  -2.8402
    -2.8216  -2.8023  -2.8012  -2.7908  -2.7804  -2.7750  -2.7340  -2.7244
    -2.7068  -2.6662  -2.6656  -2.6396  -2.6343  -2.6253  -2.6065  -2.5102
    -2.5094  -2.5084  -2.4604  -2.4396  -2.4296  -2.3532

     the Fermi energy is    -4.6423 ev

!    total energy              =  -28869.17304716 Ry
     total all-electron energy =   -575847.101617 Ry
     estimated scf accuracy    <          4.9E-09 Ry
     smearing contrib. (-TS)   =      -0.00000447 Ry
     internal energy E=F+TS    =  -28869.17304269 Ry

     The total energy is F=E-TS. E is the sum of the following terms:
     one-electron contribution =  539197.87798684 Ry
     hartree contribution      = -269822.66717445 Ry
     xc contribution           =   -1654.92663933 Ry
     ewald contribution        = -279469.97458708 Ry
     DFT-D3 Dispersion         =      -4.06782551 Ry
     one-center paw contrib.   =  -17115.41480315 Ry

     convergence has been achieved in  10 iterations

     negative rho (up, down):  8.834E-04 0.000E+00

     Forces acting on atoms (cartesian axes, Ry/au):

     atom    1 type  1   force =     0.00006583    0.00009634   -0.00011682
     atom    2 type  1   force =     0.00000010   -0.00000329    0.00189870
     atom    3 type  1   force =    -0.00003738   -0.00000668    0.00001353
     atom    4 type  2   force =     0.00000040   -0.00000053   -0.00328128
     atom    5 type  2   force =    -0.00003470   -0.00000386    0.00006922
     atom    6 type  2   force =     0.00028476   -0.00014617    0.00024115
     atom    7 type  2   force =     0.00000104   -0.00000854    0.00151784
     atom    8 type  2   force =    -0.00002431   -0.00000975   -0.00003871
     atom    9 type  2   force =     0.00018979   -0.00010280   -0.00020297
     atom   10 type  1   force =     0.00029131   -0.00006653    0.00007993
     atom   11 type  1   force =     0.00000116   -0.00000417    0.00190315
     atom   12 type  1   force =     0.00000468   -0.00000917   -0.00007417
     atom   13 type  2   force =    -0.00000012   -0.00000048   -0.00328077
     atom   14 type  2   force =     0.00003594   -0.00004029    0.00002665
     atom   15 type  2   force =     0.00056394    0.00018322    0.00021977
     atom   16 type  2   force =     0.00000845   -0.00001336    0.00152811
     atom   17 type  2   force =    -0.00003133    0.00001686   -0.00007809
     atom   18 type  2   force =     0.00017892    0.00011371   -0.00024735
     atom   19 type  1   force =    -0.00016840    0.00008906   -0.00001377
     atom   20 type  1   force =     0.00000137   -0.00000266    0.00190773
     atom   21 type  1   force =    -0.00000220   -0.00002846    0.00000937
     atom   22 type  2   force =     0.00000028   -0.00000091   -0.00328058
     atom   23 type  2   force =    -0.00001618    0.00001057    0.00003901
     atom   24 type  2   force =    -0.00033090    0.00007493   -0.00007612
     atom   25 type  2   force =     0.00000539   -0.00000795    0.00152495
     atom   26 type  2   force =     0.00001378   -0.00004599   -0.00002488
     atom   27 type  2   force =    -0.00021748   -0.00016494   -0.00003249
     atom   28 type  1   force =     0.00010207   -0.00002980   -0.00001275
     atom   29 type  1   force =     0.00000113   -0.00000156    0.00190372
     atom   30 type  1   force =    -0.00000805   -0.00001079    0.00003247
     atom   31 type  2   force =     0.00000085   -0.00000109   -0.00328053
     atom   32 type  2   force =    -0.00001301   -0.00001071    0.00007712
     atom   33 type  2   force =    -0.00018879   -0.00004089    0.00019829
     atom   34 type  2   force =    -0.00000417   -0.00000185    0.00152029
     atom   35 type  2   force =    -0.00000585   -0.00002285   -0.00004446
     atom   36 type  2   force =    -0.00011540    0.00012019   -0.00011424
     atom   37 type  1   force =     0.00000349    0.00019697   -0.00009786
     atom   38 type  1   force =    -0.00000107   -0.00000492    0.00190369
     atom   39 type  1   force =    -0.00002027   -0.00001851    0.00003175
     atom   40 type  2   force =     0.00000054   -0.00000095   -0.00328140
     atom   41 type  2   force =    -0.00001567   -0.00001535    0.00007741
     atom   42 type  2   force =    -0.00000658    0.00024588    0.00022904
     atom   43 type  2   force =    -0.00000346   -0.00000686    0.00150388
     atom   44 type  2   force =    -0.00000538   -0.00001667   -0.00004433
     atom   45 type  2   force =    -0.00012161    0.00008390   -0.00012015
     atom   46 type  1   force =    -0.00001373   -0.00005944   -0.00023661
     atom   47 type  1   force =    -0.00000216   -0.00000474    0.00189846
     atom   48 type  1   force =    -0.00000596   -0.00002630    0.00001564
     atom   49 type  2   force =     0.00000020   -0.00000094   -0.00328128
     atom   50 type  2   force =    -0.00000510   -0.00003725    0.00007062
     atom   51 type  2   force =     0.00000165   -0.00006205   -0.00048202
     atom   52 type  2   force =     0.00000041   -0.00000969    0.00151820
     atom   53 type  2   force =    -0.00003049   -0.00002953   -0.00001788
     atom   54 type  2   force =    -0.00007491   -0.00030724   -0.00006140
     atom   55 type  1   force =     0.00009259   -0.00002356   -0.00033022
     atom   56 type  1   force =    -0.00000089   -0.00000425    0.00189866
     atom   57 type  1   force =    -0.00000819   -0.00002199   -0.00000000
     atom   58 type  2   force =    -0.00000025   -0.00000074   -0.00328139
     atom   59 type  2   force =     0.00001292   -0.00001317    0.00005096
     atom   60 type  2   force =     0.00016831    0.00014724    0.00038760
[...]
     atom  133 type  2   force =    -0.00001039   -0.00000362    0.00151987
     atom  134 type  2   force =     0.00000447   -0.00002365   -0.00007977
     atom  135 type  2   force =     0.00025924   -0.00020803   -0.00042005
     atom  136 type  1   force =    -0.00002985   -0.00008198   -0.00011486
     atom  137 type  1   force =     0.00000002   -0.00000088    0.00189865
     atom  138 type  1   force =     0.00000211   -0.00002183    0.00001654
     atom  139 type  2   force =     0.00000053   -0.00000071   -0.00328159
     atom  140 type  2   force =     0.00001067   -0.00001283    0.00007204
     atom  141 type  2   force =     0.00007640    0.00001824   -0.00044289
     atom  142 type  2   force =    -0.00000273   -0.00000423    0.00152307
     atom  143 type  2   force =    -0.00000869    0.00000428   -0.00001706
     atom  144 type  2   force =     0.00024798    0.00024626   -0.00005832
     atom  145 type  3   force =    -0.00009497    0.00016593    0.00071138
     atom  146 type  3   force =    -0.00013299    0.00008958    0.00063179
     atom  147 type  3   force =    -0.00052258    0.00036344   -0.00080400

     Total force =     0.002948     Total SCF correction =     0.000428
     SCF correction compared to forces is large: reduce conv_thr to get better values
     Energy error            =      1.6E-05 Ry
     Gradient error          =      8.0E-04 Ry/Bohr

     bfgs converged in  20 scf cycles and  19 bfgs steps
     (criteria: energy <  1.0E-04 Ry, force <  1.0E-03 Ry/Bohr)

     End of BFGS Geometry Optimization

     Final energy             =  -28869.1730471596 Ry

     File ./outdir/pwscf.bfgs deleted, as requested
Begin final coordinates

ATOMIC_POSITIONS (angstrom)
Mo               1.5628071158        2.7048002029        6.0927517906
Mo               1.5769197498        0.9104407117       -6.0872367793    0   0   0
Mo               0.0003233783        1.8191739156        0.0010039491
S                0.0000044503        0.0000077495       -7.6506323570    0   0   0
S                1.5770379620        0.9089618620       -1.5649308936
S               -0.0053063255        1.8089819981        4.5165094876
S                0.0000053241        0.0000068460       -4.5222282367    0   0   0
S                1.5774765728        0.9084240940        1.5679894718
S               -0.0101500518        1.8115383192        7.6698400367
Mo              -0.0175039879        5.4446038806        6.0971139790
Mo               0.0000011799        3.6417399547       -6.0872367793    0   0   0
Mo              -1.5770118518        4.5504056445        0.0007489241
S               -1.5769141197        2.7313069925       -7.6506323570    0   0   0
S                0.0004915445        3.6403923207       -1.5642064666
S               -1.5844794653        4.5376430174        4.5210414762
S               -1.5769132459        2.7313060890       -4.5222282367    0   0   0
S               -0.0002420355        3.6397831249        1.5684017805
S               -1.5937185309        4.5332006126        7.6607781396
Mo              -1.5928558435        8.1774356945        6.0846506302
Mo              -1.5769173901        6.3730391977       -6.0872367793    0   0   0
Mo              -3.1539818864        7.2819659306       -0.0002207365
S               -3.1538326896        5.4626062355       -7.6506323570    0   0   0
S               -1.5761345544        6.3714870903       -1.5647282434
S               -3.1591838623        7.2694715308        4.5157852039
S               -3.1538318159        5.4626053320       -4.5222282367    0   0   0
S               -1.5781986688        6.3711284350        1.5673156095
S               -3.1485821454        7.2672376055        7.6675571807
Mo               3.1500747917       -0.0130053921        6.0855187152
Mo              -3.1538359601        9.1043384407       -6.0872367793    0   0   0
Mo              -4.7307442348       10.0131129534        0.0006259129
S               -4.7307512596        8.1939054785       -7.6506323570    0   0   0
S               -3.1536728907        9.1031479910       -1.5653505840
S               -4.7326845179       10.0027016962        4.5203908570
S               -4.7307503859        8.1939045750       -4.5222282367    0   0   0
S               -3.1539467810        9.1025131745        1.5674674969
S               -4.7277623259       10.0062546451        7.6570355525
Mo               4.7370048399        2.7018758892        6.0951676767
Mo               4.7307503218        0.9104407117       -6.0872367793    0   0   0
Mo               3.1539585393        1.8193591505        0.0006746790
S                3.1538350223        0.0000077495       -7.6506323570    0   0   0
S                4.7306207270        0.9087060650       -1.5653131257
S                3.1502706278        1.8059314398        4.5203293833
S                3.1538358961        0.0000068460       -4.5222282367    0   0   0
S                4.7308285371        0.9088516454        1.5674964390
S                3.1495494775        1.7996527340        7.6570463185
Mo               3.1487761117        5.3904934815        6.0838211829
Mo               3.1538317519        3.6417399547       -6.0872367793    0   0   0
Mo               1.5770445383        4.5507038050        0.0020011052
S                1.5769164523        2.7313069925       -7.6506323570    0   0   0
S                3.1534534459        3.6406346811       -1.5644211411
S                1.5632325068        4.5239974076        4.5345333052
S                1.5769173261        2.7313060890       -4.5222282367    0   0   0
S                3.1544943993        3.6399570001        1.5688550336
S                1.5077777222        4.4852578436        7.7111968583
Mo               1.5181492197        8.2127687931        6.0457807093
Mo               1.5769131819        6.3730391977       -6.0872367793    0   0   0
Mo               0.0000967452        7.2817519993        0.0020009031
S               -0.0000021176        5.4626062355       -7.6506323570    0   0   0
S                1.5772528721        6.3717603707       -1.5630923706
S               -0.0319307118        7.2595897373        4.5128641663
[...]
S                6.3076599001        5.4626053320       -4.5222282367    0   0   0
S                7.8846745764        6.3712129821        1.5671179809
S                6.3882771353        7.2421704468        7.7170099297
Mo               0.0026984637        0.0028188880        6.0927301591
Mo               6.3076557559        9.1043384407       -6.0872367793    0   0   0
Mo               4.7307362796       10.0131183830        0.0019386075
S                4.7307404564        8.1939054785       -7.6506323570    0   0   0
S                6.3071543835        9.1030773359       -1.5644909494
S                4.7352225893       10.0184821974        4.5342851478
S                4.7307413301        8.1939045750       -4.5222282367    0   0   0
S                6.3080452210        9.1021596244        1.5687784941
S                4.7408353058       10.0847771247        7.7110043891
Pt               3.1716824325        5.6243766762        9.0294055823
Pt               4.5854310459        8.0734232006        9.0305609483
Pt               1.7856019775        8.0570987997        9.1213067796
End final coordinates

     Writing all to output data dir ./outdir/pwscf.save/ :
     XML data file, charge density, pseudopotentials, collected wavefunctions

     General routines

     Parallel routines

   This run was terminated on:  23:48:15  10Feb2024

   JOB DONE.