     Program PWSCF v.7.2 starts on 13Sep2023 at 22: 9:49

     Waiting for input...
     Reading input from standard input
Warning: card &CELL ignored
Warning: card / ignored

     Current dimensions of program PWSCF are:
     Max number of different atomic species (ntypx) = 10
     Max number of k-points (npk) =  40000
     Max angular momentum in pseudopotentials (lmaxx) =  4
     file Mo.pbe-spn-kjpaw_psl.1.0.0.UPF: wavefunction(s)  4S 4D renormalized
     file S.pbe-n-kjpaw_psl.1.0.0.UPF: wavefunction(s)  3S 3P renormalized
     file Pd.pbe-spn-kjpaw_psl.1.0.0.UPF: wavefunction(s)  4S 5S 4D renormalized
     file H.pbe-kjpaw_psl.1.0.0.UPF: wavefunction(s)  1S renormalized

     R & G space division:  proc/nbgrp/npool/nimage =      36
     Subspace diagonalization in iterative solution of the eigenvalue problem:
     one sub-group per band group will be used

     Using Slab Decomposition

     bravais-lattice index     =            0
     lattice parameter (alat)  =      23.8199  a.u.
     unit-cell volume          =   33861.0370 (a.u.)^3
     number of atoms/cell      =          194
     number of atomic types    =            4
     number of electrons       =      1683.00
     number of Kohn-Sham states=         1010
     kinetic-energy cutoff     =      77.0000  Ry
     charge density cutoff     =     539.0000  Ry
     scf convergence threshold =      1.0E-06
     mixing beta               =       0.2000
     number of iterations used =            8  plain     mixing
     energy convergence thresh.=      1.0E-04
     force convergence thresh. =      1.0E-03
     Exchange-correlation= SLA  PW   PBX  PBC
                           (   1   4   3   4   0   0   0)
     nstep                     =         1000

     Effective Screening Medium Method
     Boundary Conditions: Vacuum-Slab-Vacuum
     total charge in unit cell        =   0.0000
     grid points for fit at edges     =        4

     celldm(1)=  23.819920  celldm(2)=   0.000000  celldm(3)=   0.000000
     celldm(4)=   0.000000  celldm(5)=   0.000000  celldm(6)=   0.000000

     crystal axes: (cart. coord. in units of alat)
               a(1) = (   1.000000   0.000000   0.000000 )
               a(2) = (  -0.499999   0.866026   0.000000 )
               a(3) = (   0.000000   0.000000   2.893000 )

     reciprocal axes: (cart. coord. in units 2 pi/alat)
               b(1) = (  1.000000  0.577349  0.000000 )
               b(2) = (  0.000000  1.154700  0.000000 )
               b(3) = (  0.000000  0.000000  0.345662 )

     PseudoPot. # 1 for Mo read from file:
     ./pseudo/Mo.pbe-spn-kjpaw_psl.1.0.0.UPF
     MD5 check sum: 317bf72632116215fd98f72de1686f13
     Pseudo is Projector augmented-wave + core cor, Zval = 14.0
     Generated using 'atomic' code by A. Dal Corso  v.7.2
     Shape of augmentation charge: PSQ
     Using radial grid of 1229 points,  6 beta functions with:
                l(1) =   0
                l(2) =   0
                l(3) =   1
                l(4) =   1
                l(5) =   2
                l(6) =   2
     Q(r) pseudized with 0 coefficients

     PseudoPot. # 2 for S  read from file:
     ./pseudo/S.pbe-n-kjpaw_psl.1.0.0.UPF
     MD5 check sum: 8b7b5302570d38d5e87fed6a1065abda
     Pseudo is Projector augmented-wave + core cor, Zval =  6.0
     Generated using 'atomic' code by A. Dal Corso  v.7.2
     Shape of augmentation charge: PSQ
     Using radial grid of 1151 points,  6 beta functions with:
                l(1) =   0
                l(2) =   0
                l(3) =   1
                l(4) =   1
                l(5) =   2
                l(6) =   2
     Q(r) pseudized with 0 coefficients

     PseudoPot. # 3 for Pd read from file:
     ./pseudo/Pd.pbe-spn-kjpaw_psl.1.0.0.UPF
     MD5 check sum: a60571a671f2502b8a6a4569d20a6edb
     Pseudo is Projector augmented-wave + core cor, Zval = 18.0
     Generated using 'atomic' code by A. Dal Corso  v.7.2
     Shape of augmentation charge: PSQ
     Using radial grid of 1235 points,  6 beta functions with:
                l(1) =   0
                l(2) =   0
                l(3) =   1
                l(4) =   1
                l(5) =   2
                l(6) =   2
     Q(r) pseudized with 0 coefficients

     PseudoPot. # 4 for H  read from file:
     ./pseudo/H.pbe-kjpaw_psl.1.0.0.UPF
     MD5 check sum: b3cb3c48ee3b58cc53e4d592112d0ca6
     Pseudo is Projector augmented-wave, Zval =  1.0
     Generated using 'atomic' code by A. Dal Corso  v.7.2
     Shape of augmentation charge: PSQ
     Using radial grid of  929 points,  2 beta functions with:
                l(1) =   0
                l(2) =   0
     Q(r) pseudized with 0 coefficients

     atomic species   valence    mass     pseudopotential
        Mo            14.00    95.95000     Mo( 1.00)
        S              6.00    32.06000     S ( 1.00)
        Pd            18.00   106.42000     Pd( 1.00)
        H              1.00     1.00800     H ( 1.00)

     No symmetry found

   Cartesian axes

     site n.     atom                  positions (alat units)
         1           Mo  tau(   1) = (   0.0000010   0.1443372  -0.7272732  )
         2           Mo  tau(   2) = (   0.1249995   0.0721706  -0.2424038  )
         3           S   tau(   3) = (   0.0000015   0.1443386  -0.3667807  )
         4           S   tau(   4) = (   0.1250010   0.0721682  -0.6030489  )
         5           S   tau(   5) = (   0.1250010   0.0721683  -0.8514963  )
         6           S   tau(   6) = (   0.0000015   0.1443389  -0.1180260  )
         7           Mo  tau(   7) = (   0.0000007   0.1443589   0.2424205  )
         8           Mo  tau(   8) = (   0.1250041   0.0720322   0.7266168  )
         9           S   tau(   9) = (   0.0000742   0.1444871   0.6020949  )
        10           S   tau(  10) = (   0.1250024   0.0721701   0.3667478  )
        11           S   tau(  11) = (   0.1250035   0.0721876   0.1180348  )
        12           S   tau(  12) = (  -0.0004118   0.1430864   0.8514340  )
        13           Mo  tau(  13) = (  -0.1249989   0.3608437  -0.7272732  )
        14           Mo  tau(  14) = (   0.0000030   0.2886752  -0.2424042  )
        15           S   tau(  15) = (  -0.1249977   0.3608450  -0.3667802  )
        16           S   tau(  16) = (   0.0000012   0.2886747  -0.6030489  )
        17           S   tau(  17) = (   0.0000012   0.2886748  -0.8514963  )
        18           S   tau(  18) = (  -0.1249977   0.3608454  -0.1180274  )
        19           Mo  tau(  19) = (  -0.1249729   0.3608584   0.2424608  )
        20           Mo  tau(  20) = (  -0.0007193   0.2876626   0.7275440  )
        21           S   tau(  21) = (  -0.1251115   0.3607789   0.6027257  )
        22           S   tau(  22) = (   0.0000621   0.2887099   0.3668377  )
        23           S   tau(  23) = (  -0.0000096   0.2886902   0.1180527  )
        24           S   tau(  24) = (  -0.1254673   0.3605734   0.8517408  )
        25           Mo  tau(  25) = (  -0.2499987   0.5773502  -0.7272732  )
        26           Mo  tau(  26) = (  -0.1249977   0.5051839  -0.2424055  )
        27           S   tau(  27) = (  -0.2499981   0.5773518  -0.3667809  )
        28           S   tau(  28) = (  -0.1249986   0.5051812  -0.6030489  )
        29           S   tau(  29) = (  -0.1249986   0.5051813  -0.8514963  )
        30           S   tau(  30) = (  -0.2499979   0.5773512  -0.1180266  )
        31           Mo  tau(  31) = (  -0.2499795   0.5773389   0.2424205  )
        32           Mo  tau(  32) = (  -0.1262356   0.5050639   0.7275441  )
        33           S   tau(  33) = (  -0.2498323   0.5773390   0.6020948  )
        34           S   tau(  34) = (  -0.1249376   0.5052159   0.3668377  )
        35           S   tau(  35) = (  -0.1249905   0.5051638   0.1180531  )
        36           S   tau(  36) = (  -0.2512883   0.5776183   0.8514340  )
        37           Mo  tau(  37) = (  -0.3749985   0.7938567  -0.7272732  )
        38           Mo  tau(  38) = (  -0.2500001   0.7216874  -0.2424031  )
        39           S   tau(  39) = (  -0.3749980   0.7938584  -0.3667800  )
        40           S   tau(  40) = (  -0.2499984   0.7216877  -0.6030489  )
        41           S   tau(  41) = (  -0.2499984   0.7216878  -0.8514963  )
        42           S   tau(  42) = (  -0.3749982   0.7938585  -0.1180264  )
        43           Mo  tau(  43) = (  -0.3749962   0.7938568   0.2423838  )
        44           Mo  tau(  44) = (  -0.2501148   0.7217588   0.7266170  )
        45           S   tau(  45) = (  -0.3749945   0.7938590   0.6021274  )
        46           S   tau(  46) = (  -0.2499958   0.7216877   0.3667488  )
        47           S   tau(  47) = (  -0.2499810   0.7216794   0.1180323  )
        48           S   tau(  48) = (  -0.3749953   0.7938585   0.8511588  )
        49           Mo  tau(  49) = (   0.2500010   0.1443372  -0.7272732  )
        50           Mo  tau(  50) = (   0.3750034   0.0721723  -0.2424032  )
        51           S   tau(  51) = (   0.2500017   0.1443391  -0.3667788  )
        52           S   tau(  52) = (   0.3750010   0.0721682  -0.6030489  )
        53           S   tau(  53) = (   0.3750010   0.0721683  -0.8514963  )
        54           S   tau(  54) = (   0.2500016   0.1443391  -0.1180271  )
        55           Mo  tau(  55) = (   0.2500054   0.1443594   0.2424211  )
        56           Mo  tau(  56) = (   0.3749279   0.0721263   0.7263991  )
        57           S   tau(  57) = (   0.2499344   0.1444864   0.6020948  )
        58           S   tau(  58) = (   0.3750316   0.0721860   0.3667597  )
        59           S   tau(  59) = (   0.3749924   0.0721644   0.1180346  )
        60           S   tau(  60) = (   0.2504199   0.1430865   0.8514340  )
[...]
       180           S   tau( 180) = (   0.5012979   0.5776190   0.8514332  )
       181           Mo  tau( 181) = (   0.3750016   0.7938567  -0.7272732  )
       182           Mo  tau( 182) = (   0.5000025   0.7216901  -0.2424039  )
       183           S   tau( 183) = (   0.3750019   0.7938578  -0.3667793  )
       184           S   tau( 184) = (   0.5000016   0.7216877  -0.6030489  )
       185           S   tau( 185) = (   0.5000016   0.7216878  -0.8514963  )
       186           S   tau( 186) = (   0.3750020   0.7938579  -0.1180272  )
       187           Mo  tau( 187) = (   0.3749848   0.7938487   0.2424206  )
       188           Mo  tau( 188) = (   0.5001249   0.7217591   0.7266160  )
       189           S   tau( 189) = (   0.3749125   0.7937251   0.6020942  )
       190           S   tau( 190) = (   0.5000021   0.7216868   0.3667472  )
       191           S   tau( 191) = (   0.4999874   0.7216780   0.1180346  )
       192           S   tau( 192) = (   0.3758826   0.7948451   0.8514332  )
       193           Pd  tau( 193) = (   0.1250063   0.5051842   0.9601361  )
       194           H   tau( 194) = (   0.1913929   0.4668798   0.8637077  )

     DFT-D3 Dispersion Correction (3-body terms):
       Reference C6 values for interpolation:

         atom   Coordination number   C6
         H          0.912             6.05
         H          0.000            15.18
         S          0.000           268.01
[...]
     atom   15 type  2   force =     0.00000000    0.00000000    0.00000000
     atom   16 type  2   force =     0.00000000    0.00000000    0.00000000
     atom   17 type  2   force =     0.00000000    0.00000000    0.00000000
     atom   18 type  2   force =     0.00000000    0.00000000    0.00000000
     atom   19 type  1   force =     0.00000393    0.00000555    0.00005985
     atom   20 type  1   force =     0.00000023   -0.00000509   -0.00014304
     atom   21 type  2   force =    -0.00000060   -0.00000323   -0.00002795
     atom   22 type  2   force =     0.00000284    0.00000174    0.00002338
     atom   23 type  2   force =     0.00000095    0.00000156    0.00000465
     atom   24 type  2   force =     0.00000240    0.00000154   -0.00002201
     atom   25 type  1   force =     0.00000000    0.00000000    0.00000000
     atom   26 type  1   force =     0.00000000    0.00000000    0.00000000
     atom   27 type  2   force =     0.00000000    0.00000000    0.00000000
     atom   28 type  2   force =     0.00000000    0.00000000    0.00000000
     atom   29 type  2   force =     0.00000000    0.00000000    0.00000000
     atom   30 type  2   force =     0.00000000    0.00000000    0.00000000
     atom   31 type  1   force =    -0.00000106    0.00000274    0.00005328
     atom   32 type  1   force =     0.00000480    0.00000608   -0.00012967
     atom   33 type  2   force =     0.00000217   -0.00000053   -0.00002922
     atom   34 type  2   force =     0.00000167   -0.00000135    0.00002193
     atom   35 type  2   force =     0.00000098    0.00000059    0.00000519
     atom   36 type  2   force =     0.00000594   -0.00000314   -0.00002290
     atom   37 type  1   force =     0.00000000    0.00000000    0.00000000
     atom   38 type  1   force =     0.00000000    0.00000000    0.00000000
     atom   39 type  2   force =     0.00000000    0.00000000    0.00000000
     atom   40 type  2   force =     0.00000000    0.00000000    0.00000000
     atom   41 type  2   force =     0.00000000    0.00000000    0.00000000
     atom   42 type  2   force =     0.00000000    0.00000000    0.00000000
     atom   43 type  1   force =     0.00000517   -0.00000350    0.00006094
     atom   44 type  1   force =     0.00001226   -0.00000682   -0.00014724
     atom   45 type  2   force =    -0.00000282    0.00000128   -0.00003266
     atom   46 type  2   force =    -0.00000215    0.00000098    0.00002127
     atom   47 type  2   force =     0.00000047   -0.00000062    0.00000556
     atom   48 type  2   force =    -0.00000304    0.00000205   -0.00001774
     atom   49 type  1   force =     0.00000000    0.00000000    0.00000000
     atom   50 type  1   force =     0.00000000    0.00000000    0.00000000
     atom   51 type  2   force =     0.00000000    0.00000000    0.00000000
     atom   52 type  2   force =     0.00000000    0.00000000    0.00000000
     atom   53 type  2   force =     0.00000000    0.00000000    0.00000000
     atom   54 type  2   force =     0.00000000    0.00000000    0.00000000
     atom   55 type  1   force =     0.00000122    0.00000202    0.00006052
     atom   56 type  1   force =     0.00000749    0.00001162   -0.00014760
     atom   57 type  2   force =    -0.00000107    0.00000217   -0.00002721
     atom   58 type  2   force =    -0.00000124    0.00000177    0.00002271
     atom   59 type  2   force =    -0.00000122   -0.00000021    0.00000465
     atom   60 type  2   force =     0.00000054    0.00000544   -0.00002048
[...]
     atom  180 type  2   force =    -0.00000394   -0.00000284   -0.00002014
     atom  181 type  1   force =     0.00000000    0.00000000    0.00000000
     atom  182 type  1   force =     0.00000000    0.00000000    0.00000000
     atom  183 type  2   force =     0.00000000    0.00000000    0.00000000
     atom  184 type  2   force =     0.00000000    0.00000000    0.00000000
     atom  185 type  2   force =     0.00000000    0.00000000    0.00000000
     atom  186 type  2   force =     0.00000000    0.00000000    0.00000000
     atom  187 type  1   force =    -0.00000049   -0.00000558    0.00006064
     atom  188 type  1   force =    -0.00000609   -0.00000499   -0.00014868
     atom  189 type  2   force =    -0.00000013    0.00000048   -0.00002836
     atom  190 type  2   force =    -0.00000070   -0.00000126    0.00002482
     atom  191 type  2   force =     0.00000056   -0.00000117    0.00000395
     atom  192 type  2   force =    -0.00000152   -0.00000140   -0.00002042
     atom  193 type  3   force =     0.00011791   -0.00006745   -0.00007955
     atom  194 type  4   force =    -0.00000041    0.00000024   -0.00000174

     DFT-D3 dispersion contribution to forces:
     atom    1 type  1   force =     0.00000001    0.00000004    0.00255989
     atom    2 type  1   force =     0.00000011    0.00000000    0.00005479
     atom    3 type  2   force =     0.00000001   -0.00000001   -0.00002861
     atom    4 type  2   force =    -0.00000000   -0.00000001    0.00017217
     atom    5 type  2   force =     0.00000000   -0.00000002    0.00441516
     atom    6 type  2   force =     0.00000000    0.00000025    0.00012107
     atom    7 type  1   force =    -0.00000626   -0.00000797   -0.00003954
     atom    8 type  1   force =     0.00000084    0.00009778   -0.00245750
     atom    9 type  2   force =    -0.00000469   -0.00000079   -0.00013055
     atom   10 type  2   force =    -0.00000423   -0.00001565    0.00002982
     atom   11 type  2   force =    -0.00000003    0.00000009   -0.00011794
     atom   12 type  2   force =     0.00010539    0.00028082   -0.00429652
     atom   13 type  1   force =     0.00000003    0.00000001    0.00255993
     atom   14 type  1   force =     0.00000016    0.00000039    0.00005517
     atom   15 type  2   force =     0.00000004    0.00000002   -0.00002851
     atom   16 type  2   force =     0.00000001    0.00000000    0.00017220
     atom   17 type  2   force =    -0.00000000    0.00000001    0.00441507
     atom   18 type  2   force =     0.00000041    0.00000048    0.00012119
     atom   19 type  1   force =    -0.00001102   -0.00000933   -0.00005147
     atom   20 type  1   force =     0.00018031    0.00030059   -0.00213616
     atom   21 type  2   force =     0.00002417   -0.00000231   -0.00009175
     atom   22 type  2   force =    -0.00000854   -0.00001976    0.00003235
     atom   23 type  2   force =     0.00000086   -0.00000025   -0.00012047
     atom   24 type  2   force =     0.00049522    0.00028255   -0.00416739
     atom   25 type  1   force =     0.00000003   -0.00000002    0.00255989
     atom   26 type  1   force =     0.00000041    0.00000008    0.00005547
     atom   27 type  2   force =     0.00000002    0.00000002   -0.00002854
     atom   28 type  2   force =     0.00000001   -0.00000000    0.00017219
     atom   29 type  2   force =     0.00000000   -0.00000002    0.00441508
     atom   30 type  2   force =     0.00000025    0.00000009    0.00012117
     atom   31 type  1   force =    -0.00000890   -0.00000127   -0.00004962
     atom   32 type  1   force =     0.00035529   -0.00001395   -0.00216594
     atom   33 type  2   force =    -0.00000699    0.00000385   -0.00013608
     atom   34 type  2   force =    -0.00001525   -0.00000026    0.00003106
     atom   35 type  2   force =     0.00000044    0.00000102   -0.00012156
     atom   36 type  2   force =     0.00026455   -0.00005095   -0.00431890
     atom   37 type  1   force =    -0.00000001   -0.00000000    0.00255993
     atom   38 type  1   force =     0.00000022   -0.00000010    0.00005510
     atom   39 type  2   force =     0.00000002    0.00000001   -0.00002856
     atom   40 type  2   force =    -0.00000001   -0.00000000    0.00017216
     atom   41 type  2   force =    -0.00000002    0.00000001    0.00441517
     atom   42 type  2   force =     0.00000004    0.00000001    0.00012094
     atom   43 type  1   force =    -0.00000357    0.00000206   -0.00003530
     atom   44 type  1   force =     0.00006846   -0.00003953   -0.00247183
     atom   45 type  2   force =    -0.00000721    0.00000417   -0.00016175
     atom   46 type  2   force =    -0.00001547    0.00000893    0.00002668
     atom   47 type  2   force =     0.00000058   -0.00000033   -0.00011889
     atom   48 type  2   force =     0.00000533   -0.00000308   -0.00440044
     atom   49 type  1   force =    -0.00000000    0.00000005    0.00255988
     atom   50 type  1   force =     0.00000004   -0.00000016    0.00005492
     atom   51 type  2   force =    -0.00000002   -0.00000003   -0.00002859
     atom   52 type  2   force =     0.00000001    0.00000001    0.00017219
     atom   53 type  2   force =     0.00000000    0.00000001    0.00441515
     atom   54 type  2   force =    -0.00000024    0.00000004    0.00012116
     atom   55 type  1   force =     0.00000182   -0.00000682   -0.00004580
     atom   56 type  1   force =    -0.00000828    0.00000154   -0.00248233
     atom   57 type  2   force =    -0.00001187   -0.00000784   -0.00013359
     atom   58 type  2   force =     0.00000156   -0.00000041    0.00003603
     atom   59 type  2   force =    -0.00000025   -0.00000099   -0.00011821
     atom   60 type  2   force =    -0.00010058    0.00032018   -0.00428649
[...]
     atom  180 type  2   force =    -0.00032757   -0.00007297   -0.00428649
     atom  181 type  1   force =    -0.00000003   -0.00000003    0.00255990
     atom  182 type  1   force =     0.00000002   -0.00000009    0.00005479
     atom  183 type  2   force =    -0.00000002   -0.00000001   -0.00002860
     atom  184 type  2   force =     0.00000001    0.00000000    0.00017218
     atom  185 type  2   force =     0.00000002    0.00000001    0.00441516
     atom  186 type  2   force =    -0.00000025   -0.00000013    0.00012105
     atom  187 type  1   force =     0.00000377    0.00000940   -0.00003954
     atom  188 type  1   force =    -0.00008426   -0.00004962   -0.00245751
     atom  189 type  2   force =    -0.00000165    0.00000445   -0.00013056
     atom  190 type  2   force =     0.00001143    0.00001148    0.00002982
     atom  191 type  2   force =    -0.00000009   -0.00000001   -0.00011795
     atom  192 type  2   force =    -0.00019050   -0.00023170   -0.00429653
     atom  193 type  3   force =    -0.00005711    0.00003297   -0.00639129
     atom  194 type  4   force =     0.00006013   -0.00003472   -0.00091959

     Total force =     0.003400     Total SCF correction =     0.000666
     SCF correction compared to forces is large: reduce conv_thr to get better values
     Energy error            =      2.1E-05 Ry
     Gradient error          =      9.4E-04 Ry/Bohr

     bfgs converged in  57 scf cycles and  56 bfgs steps
     (criteria: energy <  1.0E-04 Ry, force <  1.0E-03 Ry/Bohr)

     End of BFGS Geometry Optimization

     Final energy             =  -32306.7868182973 Ry

     File ./outdir/pwscf.bfgs deleted, as requested
Begin final coordinates

ATOMIC_POSITIONS (angstrom)
Mo            0.0000119917        1.8193638619       -9.1672481230    0   0   0
Mo            1.5756136568        0.9097075315       -3.0554901653    0   0   0
S             0.0000188998        1.8193822938       -4.6232556019    0   0   0
S             1.5756321638        0.9096773839       -7.6014065489    0   0   0
S             1.5756326175        0.9096785128      -10.7330757790    0   0   0
S             0.0000189190        1.8193860094       -1.4877129945    0   0   0
Mo           -0.0020214288        1.8207381758        3.0361542446
Mo            1.5775561889        0.9099527209        9.1343485519
S             0.0040557610        1.8211302639        7.5611005193
S             1.5735912341        0.9108699557        4.6035356906
S             1.5734834118        0.9106854673        1.4687704622
S            -0.0041005387        1.8033674906       10.7052094940
Mo           -1.5756053507        4.5484193819       -9.1672481230    0   0   0
Mo            0.0000378379        3.6387394919       -3.0554952701    0   0   0
S            -1.5755913433        4.5484363582       -4.6232494962    0   0   0
S             0.0000148214        3.6387329039       -7.6014065489    0   0   0
S             0.0000152751        3.6387340328      -10.7330757790    0   0   0
S            -1.5755906502        4.5484413613       -1.4877305502    0   0   0
Mo           -1.5772735256        4.5499101581        3.0364480928
Mo           -0.0129469704        3.6270016376        9.1402766634
S            -1.5783419590        4.5530890471        7.5735275295
S            -0.0010615333        3.6406361108        4.6039901683
S            -0.0022636188        3.6399646067        1.4684890694
S            -1.5839654096        4.5363050108       10.7151294166
Mo           -3.1512226931        7.2774749019       -9.1672481230    0   0   0
Mo           -1.5755910988        6.3678216792       -3.0555115988    0   0   0
S            -3.1512162438        7.2774954350       -4.6232578178    0   0   0
S            -1.5756025210        6.3677884239       -7.6014065489    0   0   0
S            -1.5756020673        6.3677895528      -10.7330757790    0   0   0
S            -3.1512127704        7.2774877076       -1.4877200710    0   0   0
Mo           -3.1530588646        7.2786747765        3.0356391103
Mo           -1.5822285559        6.3617072819        9.1571197736
S            -3.1444011677        7.2750290057        7.5748487362
S            -1.5766484834        6.3699162642        4.6033552746
S            -1.5777428978        6.3686271588        1.4680838545
S            -3.1654722464        7.2789334386       10.7132870436
Mo           -4.7268400355       10.0065304219       -9.1672481230    0   0   0
Mo           -3.1512405618        9.0968403586       -3.0554816746    0   0   0
S            -4.7268341792       10.0065523623       -4.6232463762    0   0   0
S            -3.1512198634        9.0968439439       -7.6014065489    0   0   0
S            -3.1512194097        9.0968450728      -10.7330757790    0   0   0
S            -4.7268370797       10.0065537885       -1.4877176751    0   0   0
Mo           -4.7286790230       10.0076286594        3.0362375594
Mo           -3.1505407836        9.0964814700        9.1403589382
S            -4.7234928591       10.0046182935        7.5684900520
S            -3.1526481320        9.0977068880        4.6033088236
S            -3.1533983582        9.0981419684        1.4681609137
S            -4.7289428713       10.0077747620       10.7036431587
Mo            3.1512517547        1.8193638619       -9.1672481230    0   0   0
Mo            4.7269020221        0.9097289540       -3.0554823951    0   0   0
S             3.1512612351        1.8193882564       -4.6232320683    0   0   0
S             4.7268719268        0.9096773839       -7.6014065489    0   0   0
S             4.7268723805        0.9096785128      -10.7330757790    0   0   0
S             3.1512592485        1.8193890201       -1.4877261251    0   0   0
Mo            3.1491077377        1.8205809821        3.0361866987
Mo            4.7279372029        0.9100057203        9.1371407153
S             3.1550634370        1.8276631080        7.5709857435
S             4.7249120329        0.9106705871        4.6033818675
S             4.7248294226        0.9111811471        1.4685426404
S             3.1551950055        1.8018135249       10.7140856258
[...]
S             6.3196889242        7.2828747641       10.7140836690
Mo            4.7268792535       10.0065304219       -9.1672481230    0   0   0
Mo            6.3025111524        9.0968738021       -3.0554915260    0   0   0
S             4.7268840634       10.0065452125       -4.6232380477    0   0   0
S             6.3024994256        9.0968439439       -7.6014065489    0   0   0
S             6.3024998793        9.0968450728      -10.7330757790    0   0   0
S             4.7268847312       10.0065459141       -1.4877283294    0   0   0
Mo            4.7247102289       10.0076611307        3.0361549326
Mo            6.3032429534        9.0950881013        9.1343532469
S             4.7273975796       10.0022048637        7.5611003940
S             6.3004825107        9.0980720319        4.6035398641
S             6.3005853803        9.0982561111        1.4687684700
S             4.7386990397       10.0181499501       10.7052141255
Pd            1.6402864906        6.3304912544       12.1809006551
H             2.4876209548        5.8412556468       13.4330925875
End final coordinates

     Writing all to output data dir ./outdir/pwscf.save/

     General routines

     Parallel routines

   This run was terminated on:  19: 1: 6  14Sep2023

   JOB DONE.
Application 11183198 resources: utime ~2673282s, stime ~29063s, Rss ~3509452, inblocks ~0, outblocks ~52492816