     Program PWSCF v.7.2 starts on  9Dec2023 at 12:37:45

     Waiting for input...
     Reading input from standard input
Warning: card &CELL ignored
Warning: card / ignored

     Current dimensions of program PWSCF are:
     Max number of different atomic species (ntypx) = 10
     Max number of k-points (npk) =  40000
     Max angular momentum in pseudopotentials (lmaxx) =  4
     file Mo.pbe-spn-kjpaw_psl.1.0.0.UPF: wavefunction(s)  4S 4D renormalized
     file S.pbe-n-kjpaw_psl.1.0.0.UPF: wavefunction(s)  3S 3P renormalized
     file Pd.pbe-spn-kjpaw_psl.1.0.0.UPF: wavefunction(s)  4S 5S 4D renormalized

     R & G space division:  proc/nbgrp/npool/nimage =      36
     Subspace diagonalization in iterative solution of the eigenvalue problem:
     one sub-group per band group will be used

     Using Slab Decomposition

     bravais-lattice index     =            0
     lattice parameter (alat)  =      23.8199  a.u.
     unit-cell volume          =   33861.0370 (a.u.)^3
     number of atoms/cell      =          196
     number of atomic types    =            3
     number of electrons       =      1736.00
     number of Kohn-Sham states=         1042
     kinetic-energy cutoff     =      77.0000  Ry
     charge density cutoff     =     539.0000  Ry
     scf convergence threshold =      1.0E-06
     mixing beta               =       0.2000
     number of iterations used =            8  plain     mixing
     energy convergence thresh.=      1.0E-04
     force convergence thresh. =      1.0E-03
     Exchange-correlation= SLA  PW   PBX  PBC
                           (   1   4   3   4   0   0   0)
     nstep                     =         1000

     Effective Screening Medium Method
     Boundary Conditions: Vacuum-Slab-Vacuum
     total charge in unit cell        =   0.0000
     grid points for fit at edges     =        4

     celldm(1)=  23.819920  celldm(2)=   0.000000  celldm(3)=   0.000000
     celldm(4)=   0.000000  celldm(5)=   0.000000  celldm(6)=   0.000000

     crystal axes: (cart. coord. in units of alat)
               a(1) = (   1.000000   0.000000   0.000000 )
               a(2) = (  -0.499999   0.866026   0.000000 )
               a(3) = (   0.000000   0.000000   2.893000 )

     reciprocal axes: (cart. coord. in units 2 pi/alat)
               b(1) = (  1.000000  0.577349  0.000000 )
               b(2) = (  0.000000  1.154700  0.000000 )
               b(3) = (  0.000000  0.000000  0.345662 )

     PseudoPot. # 1 for Mo read from file:
     ./pseudo/Mo.pbe-spn-kjpaw_psl.1.0.0.UPF
     MD5 check sum: 317bf72632116215fd98f72de1686f13
     Pseudo is Projector augmented-wave + core cor, Zval = 14.0
     Generated using 'atomic' code by A. Dal Corso  v.7.2
     Shape of augmentation charge: PSQ
     Using radial grid of 1229 points,  6 beta functions with:
                l(1) =   0
                l(2) =   0
                l(3) =   1
                l(4) =   1
                l(5) =   2
                l(6) =   2
     Q(r) pseudized with 0 coefficients

     PseudoPot. # 2 for S  read from file:
     ./pseudo/S.pbe-n-kjpaw_psl.1.0.0.UPF
     MD5 check sum: 8b7b5302570d38d5e87fed6a1065abda
     Pseudo is Projector augmented-wave + core cor, Zval =  6.0
     Generated using 'atomic' code by A. Dal Corso  v.7.2
     Shape of augmentation charge: PSQ
     Using radial grid of 1151 points,  6 beta functions with:
                l(1) =   0
                l(2) =   0
                l(3) =   1
                l(4) =   1
                l(5) =   2
                l(6) =   2
     Q(r) pseudized with 0 coefficients

     PseudoPot. # 3 for Pd read from file:
     ./pseudo/Pd.pbe-spn-kjpaw_psl.1.0.0.UPF
     MD5 check sum: a60571a671f2502b8a6a4569d20a6edb
     Pseudo is Projector augmented-wave + core cor, Zval = 18.0
     Generated using 'atomic' code by A. Dal Corso  v.7.2
     Shape of augmentation charge: PSQ
     Using radial grid of 1235 points,  6 beta functions with:
                l(1) =   0
                l(2) =   0
                l(3) =   1
                l(4) =   1
                l(5) =   2
                l(6) =   2
     Q(r) pseudized with 0 coefficients

     atomic species   valence    mass     pseudopotential
        Mo            14.00    95.95000     Mo( 1.00)
        S              6.00    32.06000     S ( 1.00)
        Pd            18.00   106.42000     Pd( 1.00)

     No symmetry found

   Cartesian axes

     site n.     atom                  positions (alat units)
         1           Mo  tau(   1) = (   0.0000010   0.1443372  -0.7272732  )
         2           Mo  tau(   2) = (   0.1249995   0.0721706  -0.2424038  )
         3           S   tau(   3) = (   0.0000015   0.1443386  -0.3667807  )
         4           S   tau(   4) = (   0.1250010   0.0721682  -0.6030489  )
         5           S   tau(   5) = (   0.1250010   0.0721683  -0.8514963  )
         6           S   tau(   6) = (   0.0000015   0.1443389  -0.1180260  )
         7           Mo  tau(   7) = (  -0.0000583   0.1447254   0.2427684  )
         8           Mo  tau(   8) = (   0.1248950   0.0719039   0.7279756  )
         9           S   tau(   9) = (  -0.0004167   0.1444522   0.6036897  )
        10           S   tau(  10) = (   0.1249187   0.0725551   0.3671606  )
        11           S   tau(  11) = (   0.1249617   0.0725668   0.1183937  )
        12           S   tau(  12) = (  -0.0007198   0.1403872   0.8545041  )
        13           Mo  tau(  13) = (  -0.1249989   0.3608437  -0.7272732  )
        14           Mo  tau(  14) = (   0.0000030   0.2886752  -0.2424042  )
        15           S   tau(  15) = (  -0.1249977   0.3608450  -0.3667802  )
        16           S   tau(  16) = (   0.0000012   0.2886747  -0.6030489  )
        17           S   tau(  17) = (   0.0000012   0.2886748  -0.8514963  )
        18           S   tau(  18) = (  -0.1249977   0.3608454  -0.1180274  )
        19           Mo  tau(  19) = (  -0.1250491   0.3612206   0.2427667  )
        20           Mo  tau(  20) = (  -0.0025394   0.2881170   0.7277177  )
        21           S   tau(  21) = (  -0.1258866   0.3618011   0.6036877  )
        22           S   tau(  22) = (  -0.0000871   0.2890423   0.3672091  )
        23           S   tau(  23) = (   0.0000040   0.2890806   0.1184173  )
        24           S   tau(  24) = (  -0.1295652   0.3635864   0.8544887  )
        25           Mo  tau(  25) = (  -0.2499987   0.5773502  -0.7272732  )
        26           Mo  tau(  26) = (  -0.1249977   0.5051839  -0.2424055  )
        27           S   tau(  27) = (  -0.2499981   0.5773518  -0.3667809  )
        28           S   tau(  28) = (  -0.1249986   0.5051812  -0.6030489  )
        29           S   tau(  29) = (  -0.1249986   0.5051813  -0.8514963  )
        30           S   tau(  30) = (  -0.2499979   0.5773512  -0.1180266  )
        31           Mo  tau(  31) = (  -0.2500517   0.5777232   0.2427593  )
        32           Mo  tau(  32) = (  -0.1260830   0.5066058   0.7279656  )
        33           S   tau(  33) = (  -0.2501944   0.5782650   0.6026630  )
        34           S   tau(  34) = (  -0.1250653   0.5055450   0.3671594  )
        35           S   tau(  35) = (  -0.1250235   0.5055594   0.1183942  )
        36           S   tau(  36) = (  -0.2508999   0.5787460   0.8521187  )
        37           Mo  tau(  37) = (  -0.3749985   0.7938567  -0.7272732  )
        38           Mo  tau(  38) = (  -0.2500001   0.7216874  -0.2424031  )
        39           S   tau(  39) = (  -0.3749980   0.7938584  -0.3667800  )
        40           S   tau(  40) = (  -0.2499984   0.7216877  -0.6030489  )
        41           S   tau(  41) = (  -0.2499984   0.7216878  -0.8514963  )
        42           S   tau(  42) = (  -0.3749982   0.7938585  -0.1180264  )
        43           Mo  tau(  43) = (  -0.3750588   0.7942449   0.2427588  )
        44           Mo  tau(  44) = (  -0.2501482   0.7225066   0.7272755  )
        45           S   tau(  45) = (  -0.3750604   0.7946192   0.6026681  )
        46           S   tau(  46) = (  -0.2500610   0.7220690   0.3671248  )
        47           S   tau(  47) = (  -0.2500778   0.7220461   0.1183649  )
        48           S   tau(  48) = (  -0.3749968   0.7937615   0.8521248  )
        49           Mo  tau(  49) = (   0.2500010   0.1443372  -0.7272732  )
        50           Mo  tau(  50) = (   0.3750034   0.0721723  -0.2424032  )
        51           S   tau(  51) = (   0.2500017   0.1443391  -0.3667788  )
        52           S   tau(  52) = (   0.3750010   0.0721682  -0.6030489  )
        53           S   tau(  53) = (   0.3750010   0.0721683  -0.8514963  )
        54           S   tau(  54) = (   0.2500016   0.1443391  -0.1180271  )
        55           Mo  tau(  55) = (   0.2499409   0.1447203   0.2428165  )
        56           Mo  tau(  56) = (   0.3751872   0.0721705   0.7277089  )
        57           S   tau(  57) = (   0.2502846   0.1444556   0.6038833  )
        58           S   tau(  58) = (   0.3749787   0.0725319   0.3671375  )
        59           S   tau(  59) = (   0.3748928   0.0725411   0.1183826  )
        60           S   tau(  60) = (   0.2504099   0.1406212   0.8546000  )
[...]
       182           Mo  tau( 182) = (   0.5000025   0.7216901  -0.2424039  )
       183           S   tau( 183) = (   0.3750019   0.7938578  -0.3667793  )
       184           S   tau( 184) = (   0.5000016   0.7216877  -0.6030489  )
       185           S   tau( 185) = (   0.5000016   0.7216878  -0.8514963  )
       186           S   tau( 186) = (   0.3750020   0.7938579  -0.1180272  )
       187           Mo  tau( 187) = (   0.3749305   0.7942455   0.2427605  )
       188           Mo  tau( 188) = (   0.5000327   0.7227205   0.7272893  )
       189           S   tau( 189) = (   0.3749936   0.7947084   0.6025429  )
       190           S   tau( 190) = (   0.4999352   0.7220570   0.3671028  )
       191           S   tau( 191) = (   0.4999361   0.7220829   0.1183737  )
       192           S   tau( 192) = (   0.3751146   0.7946671   0.8522496  )
       193           Pd  tau( 193) = (   0.1256362   0.4950616   0.9689781  )
       194           Pd  tau( 194) = (   0.2408400   0.2956709   0.9690247  )
       195           Pd  tau( 195) = (   0.0101056   0.2954608   0.9693304  )
       196           Pd  tau( 196) = (   0.3761218   0.5067053   0.9727389  )

     DFT-D3 Dispersion Correction (3-body terms):
       Reference C6 values for interpolation:

         atom   Coordination number   C6
         S          0.000           268.01
         S          0.995           261.99
         S          1.990           251.62
         Mo         0.000          1691.79
         Mo         1.942          1004.01
         Mo        11.056           674.22
         Pd         0.000          1217.01
         Pd         1.863           573.90
         Pd         5.710           531.75

       Values used:

         atom   Coordination number  R0_AB[au]  C6      C8
         Mo        10.208            3.547    674.22  77634.20
         Mo        10.221            3.547    674.22  77634.20
         S          3.858            3.128    251.62  12327.25
         S          3.859            3.128    251.62  12327.25
[...]
     atom   15 type  2   force =     0.00000000    0.00000000    0.00000000
     atom   16 type  2   force =     0.00000000    0.00000000    0.00000000
     atom   17 type  2   force =     0.00000000    0.00000000    0.00000000
     atom   18 type  2   force =     0.00000000    0.00000000    0.00000000
     atom   19 type  1   force =    -0.00001256    0.00001684   -0.00000724
     atom   20 type  1   force =    -0.00002423   -0.00001354   -0.00002762
     atom   21 type  2   force =     0.00000677    0.00000436   -0.00000341
     atom   22 type  2   force =     0.00000426    0.00000186    0.00001557
     atom   23 type  2   force =    -0.00000309   -0.00000187   -0.00000558
     atom   24 type  2   force =    -0.00000642    0.00001024    0.00000425
     atom   25 type  1   force =     0.00000000    0.00000000    0.00000000
     atom   26 type  1   force =     0.00000000    0.00000000    0.00000000
     atom   27 type  2   force =     0.00000000    0.00000000    0.00000000
     atom   28 type  2   force =     0.00000000    0.00000000    0.00000000
     atom   29 type  2   force =     0.00000000    0.00000000    0.00000000
     atom   30 type  2   force =     0.00000000    0.00000000    0.00000000
     atom   31 type  1   force =    -0.00000342   -0.00000696   -0.00000964
     atom   32 type  1   force =     0.00001102   -0.00002740   -0.00000182
     atom   33 type  2   force =    -0.00000133   -0.00000236    0.00000094
     atom   34 type  2   force =     0.00000538   -0.00000072   -0.00000271
     atom   35 type  2   force =    -0.00000479   -0.00000570    0.00000227
     atom   36 type  2   force =    -0.00001513   -0.00000248    0.00001558
     atom   37 type  1   force =     0.00000000    0.00000000    0.00000000
     atom   38 type  1   force =     0.00000000    0.00000000    0.00000000
     atom   39 type  2   force =     0.00000000    0.00000000    0.00000000
     atom   40 type  2   force =     0.00000000    0.00000000    0.00000000
     atom   41 type  2   force =     0.00000000    0.00000000    0.00000000
     atom   42 type  2   force =     0.00000000    0.00000000    0.00000000
     atom   43 type  1   force =    -0.00000690    0.00000000   -0.00000976
     atom   44 type  1   force =     0.00001143    0.00000793    0.00000038
     atom   45 type  2   force =    -0.00000276    0.00000008    0.00000124
     atom   46 type  2   force =     0.00000337    0.00000166   -0.00000517
     atom   47 type  2   force =     0.00000145    0.00000072    0.00000273
     atom   48 type  2   force =    -0.00000946   -0.00001193    0.00001552
     atom   49 type  1   force =     0.00000000    0.00000000    0.00000000
     atom   50 type  1   force =     0.00000000    0.00000000    0.00000000
     atom   51 type  2   force =     0.00000000    0.00000000    0.00000000
     atom   52 type  2   force =     0.00000000    0.00000000    0.00000000
     atom   53 type  2   force =     0.00000000    0.00000000    0.00000000
     atom   54 type  2   force =     0.00000000    0.00000000    0.00000000
     atom   55 type  1   force =    -0.00000383   -0.00000728    0.00000741
     atom   56 type  1   force =    -0.00001226   -0.00001155    0.00003673
     atom   57 type  2   force =    -0.00000089    0.00001346   -0.00000530
     atom   58 type  2   force =    -0.00000384    0.00000518    0.00000447
     atom   59 type  2   force =     0.00000343   -0.00000425   -0.00000157
     atom   60 type  2   force =    -0.00000141   -0.00001072   -0.00001554
[...]
     atom  182 type  1   force =     0.00000000    0.00000000    0.00000000
     atom  183 type  2   force =     0.00000000    0.00000000    0.00000000
     atom  184 type  2   force =     0.00000000    0.00000000    0.00000000
     atom  185 type  2   force =     0.00000000    0.00000000    0.00000000
     atom  186 type  2   force =     0.00000000    0.00000000    0.00000000
     atom  187 type  1   force =     0.00000903   -0.00001002   -0.00000745
     atom  188 type  1   force =     0.00002273    0.00001354   -0.00001701
     atom  189 type  2   force =    -0.00000468    0.00000173    0.00000117
     atom  190 type  2   force =    -0.00000453    0.00000745   -0.00000956
     atom  191 type  2   force =     0.00000033   -0.00000233    0.00000747
     atom  192 type  2   force =     0.00000749   -0.00000077    0.00002335
     atom  193 type  3   force =     0.00005850    0.00001518    0.00019573
     atom  194 type  3   force =     0.00004932    0.00003856    0.00019651
     atom  195 type  3   force =    -0.00004529   -0.00002672    0.00003999
     atom  196 type  3   force =    -0.00002353   -0.00001586   -0.00015168

     DFT-D3 dispersion contribution to forces:
     atom    1 type  1   force =    -0.00000002    0.00000006    0.00255972
     atom    2 type  1   force =    -0.00000003   -0.00000026    0.00000657
     atom    3 type  2   force =     0.00000001   -0.00000005   -0.00003443
     atom    4 type  2   force =    -0.00000002   -0.00000001    0.00017186
     atom    5 type  2   force =    -0.00000001    0.00000000    0.00441339
     atom    6 type  2   force =    -0.00000024    0.00000004    0.00009411
     atom    7 type  1   force =    -0.00000981   -0.00000928   -0.00000294
     atom    8 type  1   force =     0.00002323    0.00072937   -0.00161381
     atom    9 type  2   force =     0.00004787    0.00012897    0.00026571
     atom   10 type  2   force =    -0.00000219   -0.00002249    0.00005303
     atom   11 type  2   force =     0.00000035   -0.00000155   -0.00009418
     atom   12 type  2   force =     0.00058182    0.00067954   -0.00401811
     atom   13 type  1   force =     0.00000008   -0.00000004    0.00255969
     atom   14 type  1   force =    -0.00000012   -0.00000011    0.00000617
     atom   15 type  2   force =    -0.00000002    0.00000001   -0.00003442
     atom   16 type  2   force =     0.00000001    0.00000000    0.00017190
     atom   17 type  2   force =     0.00000002   -0.00000000    0.00441320
     atom   18 type  2   force =    -0.00000031    0.00000016    0.00009410
     atom   19 type  1   force =    -0.00001284   -0.00000393   -0.00000295
     atom   20 type  1   force =     0.00060923    0.00035198   -0.00148710
     atom   21 type  2   force =     0.00013602   -0.00002356    0.00026577
     atom   22 type  2   force =    -0.00002054   -0.00001148    0.00004341
     atom   23 type  2   force =    -0.00000090   -0.00000087   -0.00009683
     atom   24 type  2   force =     0.00087954    0.00016432   -0.00401815
     atom   25 type  1   force =    -0.00000000   -0.00000005    0.00255965
     atom   26 type  1   force =    -0.00000016    0.00000011    0.00000652
     atom   27 type  2   force =     0.00000004    0.00000000   -0.00003438
     atom   28 type  2   force =    -0.00000001   -0.00000000    0.00017186
     atom   29 type  2   force =    -0.00000001    0.00000001    0.00441338
     atom   30 type  2   force =    -0.00000009    0.00000021    0.00009431
     atom   31 type  1   force =     0.00000416   -0.00000047    0.00000824
     atom   32 type  1   force =     0.00064334   -0.00034435   -0.00161379
     atom   33 type  2   force =     0.00000434    0.00000474   -0.00006046
     atom   34 type  2   force =    -0.00002113    0.00000995    0.00005297
     atom   35 type  2   force =    -0.00000090    0.00000061   -0.00009417
     atom   36 type  2   force =     0.00019296   -0.00030986   -0.00414574
     atom   37 type  1   force =    -0.00000004    0.00000001    0.00255965
     atom   38 type  1   force =     0.00000003   -0.00000005    0.00000682
     atom   39 type  2   force =     0.00000002    0.00000001   -0.00003438
     atom   40 type  2   force =     0.00000000   -0.00000001    0.00017182
     atom   41 type  2   force =     0.00000003    0.00000002    0.00441355
     atom   42 type  2   force =    -0.00000011    0.00000026    0.00009431
     atom   43 type  1   force =     0.00000175    0.00000388    0.00000823
     atom   44 type  1   force =    -0.00000202   -0.00000111   -0.00224833
     atom   45 type  2   force =     0.00000663    0.00000091   -0.00006048
     atom   46 type  2   force =     0.00001218    0.00000741    0.00006010
     atom   47 type  2   force =     0.00000007   -0.00000030   -0.00009251
     atom   48 type  2   force =    -0.00017196    0.00032193   -0.00414576
     atom   49 type  1   force =    -0.00000002    0.00000008    0.00255972
     atom   50 type  1   force =     0.00000012   -0.00000018    0.00000663
     atom   51 type  2   force =     0.00000000   -0.00000007   -0.00003446
     atom   52 type  2   force =     0.00000001   -0.00000001    0.00017184
     atom   53 type  2   force =    -0.00000001    0.00000001    0.00441343
     atom   54 type  2   force =    -0.00000001    0.00000000    0.00009413
     atom   55 type  1   force =     0.00000681   -0.00001351   -0.00000701
     atom   56 type  1   force =    -0.00028602    0.00046474   -0.00191606
     atom   57 type  2   force =    -0.00003778    0.00015251    0.00030879
     atom   58 type  2   force =     0.00001359   -0.00002166    0.00005591
     atom   59 type  2   force =    -0.00000003   -0.00000112   -0.00009161
     atom   60 type  2   force =    -0.00044853    0.00096838   -0.00393440
[...]
     atom  182 type  1   force =     0.00000001    0.00000006    0.00000677
     atom  183 type  2   force =    -0.00000001   -0.00000001   -0.00003438
     atom  184 type  2   force =     0.00000000   -0.00000001    0.00017187
     atom  185 type  2   force =     0.00000000    0.00000003    0.00441348
     atom  186 type  2   force =    -0.00000014    0.00000034    0.00009412
     atom  187 type  1   force =    -0.00000609    0.00001120    0.00000753
     atom  188 type  1   force =    -0.00025544   -0.00025635   -0.00195258
     atom  189 type  2   force =    -0.00003000   -0.00003591   -0.00001186
     atom  190 type  2   force =     0.00000748    0.00000554    0.00005601
     atom  191 type  2   force =     0.00000085   -0.00000046   -0.00009416
     atom  192 type  2   force =    -0.00006136   -0.00050975   -0.00399928
     atom  193 type  3   force =     0.00016936   -0.00027189   -0.00629904
     atom  194 type  3   force =    -0.00015077    0.00028268   -0.00629905
     atom  195 type  3   force =     0.00056152    0.00032429   -0.00629710
     atom  196 type  3   force =    -0.00057396   -0.00033130   -0.00629546

     Total force =     0.003564     Total SCF correction =     0.000388
     SCF correction compared to forces is large: reduce conv_thr to get better values
     Energy error            =      2.6E-05 Ry
     Gradient error          =      7.9E-04 Ry/Bohr

     bfgs converged in  16 scf cycles and  15 bfgs steps
     (criteria: energy <  1.0E-04 Ry, force <  1.0E-03 Ry/Bohr)

     End of BFGS Geometry Optimization

     Final energy             =  -33841.5696972514 Ry

     File ./outdir/pwscf.bfgs deleted, as requested
Begin final coordinates

ATOMIC_POSITIONS (angstrom)
Mo            0.0000119917        1.8193638619       -9.1672481230    0   0   0
Mo            1.5756136568        0.9097075315       -3.0554901653    0   0   0
S             0.0000188998        1.8193822938       -4.6232556019    0   0   0
S             1.5756321638        0.9096773839       -7.6014065489    0   0   0
S             1.5756326175        0.9096785128      -10.7330757790    0   0   0
S             0.0000189190        1.8193860094       -1.4877129945    0   0   0
Mo           -0.0007116349        1.8244028368        3.0597649941
Mo            1.5762940128        0.9053859905        9.1756302225
S            -0.0003626357        1.8286516416        7.6107382778
S             1.5746161053        0.9146631285        4.6275306510
S             1.5749327059        0.9146842222        1.4919924438
S            -0.0065356347        1.7733420735       10.7710422369
Mo           -1.5756053507        4.5484193819       -9.1672481230    0   0   0
Mo            0.0000378379        3.6387394919       -3.0554952701    0   0   0
S            -1.5755913433        4.5484363582       -4.6232494962    0   0   0
S             0.0000148214        3.6387329039       -7.6014065489    0   0   0
S             0.0000152751        3.6387340328      -10.7330757790    0   0   0
S            -1.5755906502        4.5484413613       -1.4877305502    0   0   0
Mo           -1.5761900054        4.5532132332        3.0597761403
Mo           -0.0239409382        3.6360616338        9.1770280606
S            -1.5773993240        4.5601119821        7.6107495428
S            -0.0009360692        3.6435477798        4.6284578647
S            -0.0000907796        3.6439023132        1.4924576500
S            -1.6284736779        4.5824965241       10.7710776092
Mo           -3.1512226931        7.2774749019       -9.1672481230    0   0   0
Mo           -1.5755910988        6.3678216792       -3.0555115988    0   0   0
S            -3.1512162438        7.2774954350       -4.6232578178    0   0   0
S            -1.5756025210        6.3677884239       -7.6014065489    0   0   0
S            -1.5756020673        6.3677895528      -10.7330757790    0   0   0
S            -3.1512127704        7.2774877076       -1.4877200710    0   0   0
Mo           -3.1520093549        7.2823127545        3.0596966341
Mo           -1.5886532529        6.3872023261        9.1756673078
S            -3.1583173176        7.2880269266        7.5993085194
S            -1.5764474690        6.3724699289        4.6275417134
S            -1.5761316950        6.3725161455        1.4920059789
S            -3.1548512823        7.2976759906       10.7452688738
Mo           -4.7268400355       10.0065304219       -9.1672481230    0   0   0
Mo           -3.1512405618        9.0968403586       -3.0554816746    0   0   0
S            -4.7268341792       10.0065523623       -4.6232463762    0   0   0
S            -3.1512198634        9.0968439439       -7.6014065489    0   0   0
S            -3.1512194097        9.0968450728      -10.7330757790    0   0   0
S            -4.7268370797       10.0065537885       -1.4877176751    0   0   0
Mo           -4.7276388851       10.0113717655        3.0596979007
Mo           -3.1521776262        9.1074568051        9.1679687516
S            -4.7309436910       10.0117295772        7.5993120146
S            -3.1518862995        9.1018354852        4.6271430688
S            -3.1520378721        9.1016014660        1.4916905322
S            -4.7208846083       10.0100839134       10.7452599781
Mo            3.1512517547        1.8193638619       -9.1672481230    0   0   0
Mo            4.7269020221        0.9097289540       -3.0554823951    0   0   0
S             3.1512612351        1.8193882564       -4.6232320683    0   0   0
S             4.7268719268        0.9096773839       -7.6014065489    0   0   0
S             4.7268723805        0.9096785128      -10.7330757790    0   0   0
S             3.1512592485        1.8193890201       -1.4877261251    0   0   0
Mo            3.1504369749        1.8244513439        3.0600436289
Mo            4.7285647831        0.9096876866        9.1679358672
S             3.1522201243        1.8153798098        7.6030471829
S             4.7262438385        0.9145827091        4.6269189582
S             4.7259299186        0.9147371500        1.4917776638
S             3.1538172510        1.7719907149       10.7733059138
[...]
Mo            6.3025111524        9.0968738021       -3.0554915260    0   0   0
S             4.7268840634       10.0065452125       -4.6232380477    0   0   0
S             6.3024994256        9.0968439439       -7.6014065489    0   0   0
S             6.3024998793        9.0968450728      -10.7330757790    0   0   0
S             4.7268847312       10.0065459141       -1.4877283294    0   0   0
Mo            4.7262228059       10.0113066909        3.0601010711
Mo            6.3048541578        9.1125429833        9.1786352883
S             4.7389479818       10.0222929147        7.5882510994
S             6.3019231596        9.1011227151        4.6275526926
S             6.3016380097        9.1017470930        1.4918903177
S             4.7243786534       10.0235623434       10.7386820479
Pd            1.6156589323        6.2530539290       12.2605365840
Pd            3.0617231252        3.7480035391       12.2607014183
Pd            0.1551431559        3.7395426139       12.2130766796
Pd            4.6157870581        6.3150433872       12.1499298210
End final coordinates

     Writing all to output data dir ./outdir/pwscf.save/

     General routines

     Parallel routines

   This run was terminated on:   7:29:55  11Dec2023

   JOB DONE.
Application 11448912 resources: utime ~5499949s, stime ~55584s, Rss ~3535832, inblocks ~0, outblocks ~57334392