     Program PWSCF v.7.2 starts on 17Dec2023 at 20:41:35

     Waiting for input...
     Reading input from standard input
Warning: card &CELL ignored
Warning: card / ignored

     Current dimensions of program PWSCF are:
     Max number of different atomic species (ntypx) = 10
     Max number of k-points (npk) =  40000
     Max angular momentum in pseudopotentials (lmaxx) =  4
     file Mo.pbe-spn-kjpaw_psl.1.0.0.UPF: wavefunction(s)  4S 4D renormalized
     file C.pbe-n-kjpaw_psl.1.0.0.UPF: wavefunction(s)  2S 2P renormalized
     Found identity + ( -0.0000 -0.5000  0.0000) symmetry
     This is a supercell, fractional translations are disabled

     R & G space division:  proc/nbgrp/npool/nimage =      36
     Subspace diagonalization in iterative solution of the eigenvalue problem:
     one sub-group per band group will be used

     Using Slab Decomposition

     bravais-lattice index     =            0
     lattice parameter (alat)  =      17.8328  a.u.
     unit-cell volume          =   22804.1666 (a.u.)^3
     number of atoms/cell      =          144
     number of atomic types    =            2
     number of electrons       =      1536.00
     number of Kohn-Sham states=          922
     kinetic-energy cutoff     =      77.0000  Ry
     charge density cutoff     =     539.0000  Ry
     scf convergence threshold =      1.0E-06
     mixing beta               =       0.1000
     number of iterations used =            8  plain     mixing
     energy convergence thresh.=      1.0E-04
     force convergence thresh. =      1.0E-03
     Exchange-correlation= SLA  PW   PBX  PBC
                           (   1   4   3   4   0   0   0)
     nstep                     =         1000

     Effective Screening Medium Method
     Boundary Conditions: Vacuum-Slab-Vacuum
     total charge in unit cell        =   0.0000
     grid points for fit at edges     =        4

     celldm(1)=  17.832780  celldm(2)=   0.000000  celldm(3)=   0.000000
     celldm(4)=   0.000000  celldm(5)=   0.000000  celldm(6)=   0.000000

     crystal axes: (cart. coord. in units of alat)
               a(1) = (   1.000000   0.000000   0.000000 )
               a(2) = (  -0.000002   1.275560   0.000000 )
               a(3) = (   0.000000   0.000000   3.152508 )

     reciprocal axes: (cart. coord. in units 2 pi/alat)
               b(1) = (  1.000000  0.000001  0.000000 )
               b(2) = (  0.000000  0.783969  0.000000 )
               b(3) = (  0.000000  0.000000  0.317208 )

     PseudoPot. # 1 for Mo read from file:
     ./pseudo/Mo.pbe-spn-kjpaw_psl.1.0.0.UPF
     MD5 check sum: 317bf72632116215fd98f72de1686f13
     Pseudo is Projector augmented-wave + core cor, Zval = 14.0
     Generated using 'atomic' code by A. Dal Corso  v.7.2
     Shape of augmentation charge: PSQ
     Using radial grid of 1229 points,  6 beta functions with:
                l(1) =   0
                l(2) =   0
                l(3) =   1
                l(4) =   1
                l(5) =   2
                l(6) =   2
     Q(r) pseudized with 0 coefficients

     PseudoPot. # 2 for C  read from file:
     ./pseudo/C.pbe-n-kjpaw_psl.1.0.0.UPF
     MD5 check sum: 6b0792899573946bb42fe395835041da
     Pseudo is Projector augmented-wave + core cor, Zval =  4.0
     Generated using 'atomic' code by A. Dal Corso  v.7.2
     Shape of augmentation charge: PSQ
     Using radial grid of 1073 points,  4 beta functions with:
                l(1) =   0
                l(2) =   0
                l(3) =   1
                l(4) =   1
     Q(r) pseudized with 0 coefficients

     atomic species   valence    mass     pseudopotential
        Mo            14.00    95.95000     Mo( 1.00)
        C              4.00    12.01100     C ( 1.00)

     No symmetry found

   Cartesian axes

     site n.     atom                  positions (alat units)
         1           Mo  tau(   1) = (   0.1229393   0.0783352  -0.5064472  )
         2           Mo  tau(   2) = (   0.3770607   0.5594410  -0.5936927  )
         3           Mo  tau(   3) = (   0.1270604   0.2405529  -0.7814839  )
         4           Mo  tau(   4) = (   0.3729373   0.3972295  -0.3186575  )
         5           Mo  tau(   5) = (   0.3729387   0.2405530  -0.5936933  )
         6           Mo  tau(   6) = (   0.1270617   0.3972294  -0.5064479  )
         7           Mo  tau(   7) = (   0.3770603   0.0783356  -0.3186576  )
         8           Mo  tau(   8) = (   0.1229382   0.5594410  -0.7814847  )
         9           C   tau(   9) = (   0.4999993   0.2407358  -0.4125537  )
        10           C   tau(  10) = (   0.0000000   0.3970464  -0.6875869  )
        11           C   tau(  11) = (   0.2499996   0.0781529  -0.6875878  )
        12           C   tau(  12) = (   0.2499994   0.5596245  -0.4125539  )
        13           Mo  tau(  13) = (   0.1229393   0.0783347   0.0436239  )
        14           Mo  tau(  14) = (   0.3770607   0.5594406  -0.0436216  )
        15           Mo  tau(  15) = (   0.1270604   0.2405525  -0.2314128  )
        16           Mo  tau(  16) = (   0.3729373   0.3972290   0.2314136  )
        17           Mo  tau(  17) = (   0.3729387   0.2405526  -0.0436222  )
        18           Mo  tau(  18) = (   0.1270617   0.3972289   0.0436232  )
        19           Mo  tau(  19) = (   0.3770603   0.0783352   0.2314135  )
        20           Mo  tau(  20) = (   0.1229382   0.5594405  -0.2314136  )
        21           C   tau(  21) = (   0.4999993   0.2407353   0.1375174  )
        22           C   tau(  22) = (   0.0000000   0.3970459  -0.1375159  )
        23           C   tau(  23) = (   0.2499996   0.0781524  -0.1375167  )
        24           C   tau(  24) = (   0.2499994   0.5596241   0.1375172  )
        25           Mo  tau(  25) = (   0.1229393   0.0783343   0.5936950  )
        26           Mo  tau(  26) = (   0.3770607   0.5594401   0.5064495  )
        27           Mo  tau(  27) = (   0.1270604   0.2405520   0.3186583  )
        28           Mo  tau(  28) = (   0.3729372   0.3972286   0.7814847  )
        29           Mo  tau(  29) = (   0.3729387   0.2405521   0.5064489  )
        30           Mo  tau(  30) = (   0.1270617   0.3972285   0.5936943  )
        31           Mo  tau(  31) = (   0.3770603   0.0783347   0.7814846  )
        32           Mo  tau(  32) = (   0.1229382   0.5594401   0.3186575  )
        33           C   tau(  33) = (   0.4999992   0.2407349   0.6875885  )
        34           C   tau(  34) = (   0.0000000   0.3970455   0.4125552  )
        35           C   tau(  35) = (   0.2499996   0.0781520   0.4125544  )
        36           C   tau(  36) = (   0.2499994   0.5596236   0.6875882  )
        37           Mo  tau(  37) = (   0.1229385   0.7161152  -0.5064472  )
        38           Mo  tau(  38) = (   0.3770599   1.1972210  -0.5936927  )
        39           Mo  tau(  39) = (   0.1270596   0.8783329  -0.7814839  )
        40           Mo  tau(  40) = (   0.3729364   1.0350095  -0.3186575  )
        41           Mo  tau(  41) = (   0.3729379   0.8783330  -0.5936933  )
        42           Mo  tau(  42) = (   0.1270609   1.0350093  -0.5064479  )
        43           Mo  tau(  43) = (   0.3770595   0.7161156  -0.3186576  )
        44           Mo  tau(  44) = (   0.1229374   1.1972209  -0.7814847  )
        45           C   tau(  45) = (   0.4999984   0.8785157  -0.4125537  )
        46           C   tau(  46) = (  -0.0000008   1.0348263  -0.6875869  )
        47           C   tau(  47) = (   0.2499988   0.7159328  -0.6875878  )
        48           C   tau(  48) = (   0.2499986   1.1974045  -0.4125539  )
        49           Mo  tau(  49) = (   0.1229384   0.7161147   0.0436239  )
        50           Mo  tau(  50) = (   0.3770598   1.1972206  -0.0436216  )
        51           Mo  tau(  51) = (   0.1270596   0.8783324  -0.2314128  )
        52           Mo  tau(  52) = (   0.3729364   1.0350090   0.2314136  )
        53           Mo  tau(  53) = (   0.3729378   0.8783325  -0.0436222  )
        54           Mo  tau(  54) = (   0.1270608   1.0350089   0.0436232  )
        55           Mo  tau(  55) = (   0.3770594   0.7161152   0.2314135  )
        56           Mo  tau(  56) = (   0.1229374   1.1972205  -0.2314136  )
        57           C   tau(  57) = (   0.4999984   0.8785153   0.1375174  )
        58           C   tau(  58) = (  -0.0000008   1.0348259  -0.1375159  )
        59           C   tau(  59) = (   0.2499987   0.7159324  -0.1375167  )
        60           C   tau(  60) = (   0.2499986   1.1974040   0.1375172  )
[...]
       130           C   tau( 130) = (   0.4999992   1.0348259  -0.1375159  )
       131           C   tau( 131) = (   0.7499987   0.7159324  -0.1375167  )
       132           C   tau( 132) = (   0.7499986   1.1974040   0.1375172  )
       133           Mo  tau( 133) = (   0.6229384   0.7161143   0.5936950  )
       134           Mo  tau( 134) = (   0.8770598   1.1972201   0.5064495  )
       135           Mo  tau( 135) = (   0.6270595   0.8783320   0.3186583  )
       136           Mo  tau( 136) = (   0.8729364   1.0350086   0.7814847  )
       137           Mo  tau( 137) = (   0.8729378   0.8783321   0.5064489  )
       138           Mo  tau( 138) = (   0.6270608   1.0350084   0.5936943  )
       139           Mo  tau( 139) = (   0.8770594   0.7161147   0.7814846  )
       140           Mo  tau( 140) = (   0.6229373   1.1972200   0.3186575  )
       141           C   tau( 141) = (  -0.0000016   0.8785148   0.6875885  )
       142           C   tau( 142) = (   0.4999992   1.0348254   0.4125552  )
       143           C   tau( 143) = (   0.7499987   0.7159319   0.4125544  )
       144           C   tau( 144) = (   0.7499985   1.1974036   0.6875882  )

     DFT-D3 Dispersion Correction (3-body terms):
       Reference C6 values for interpolation:

         atom   Coordination number   C6
         C          0.000            98.23
         C          0.987            86.49
         C          1.998            58.72
         C          2.999            51.56
         C          3.984            36.41
         Mo         0.000          1691.79
         Mo         1.942          1004.01
         Mo        11.056           674.22

       Values used:

         atom   Coordination number  R0_AB[au]  C6      C8
         Mo        13.555            3.547    674.22  77634.20
         Mo        11.933            3.547    674.22  77634.20
         Mo         7.260            3.547    674.22  77634.20
         Mo        13.647            3.547    674.22  77634.20
         Mo        11.933            3.547    674.22  77634.20
         Mo        13.555            3.547    674.22  77634.20
         Mo        13.647            3.547    674.22  77634.20
         Mo         7.260            3.547    674.22  77634.20
         C          6.052            2.750     36.41   1053.14
         C          5.012            2.750     36.41   1053.14
         C          5.012            2.750     36.41   1053.14
         C          6.052            2.750     36.41   1053.14
         Mo        13.654            3.547    674.22  77634.20
         Mo        13.654            3.547    674.22  77634.20
[...]
     atom   12 type  2   force =     0.00000000    0.00000000    0.00000000
     atom   13 type  1   force =    -0.00000406    0.00001292   -0.00004366
     atom   14 type  1   force =    -0.00001499   -0.00000602   -0.00006339
     atom   15 type  1   force =    -0.00001587    0.00000480   -0.00005407
     atom   16 type  1   force =    -0.00000409    0.00000465    0.00001052
     atom   17 type  1   force =     0.00001220    0.00000507   -0.00006252
     atom   18 type  1   force =     0.00000462    0.00000911   -0.00004531
     atom   19 type  1   force =     0.00000313    0.00000566    0.00001261
     atom   20 type  1   force =     0.00001660   -0.00000880   -0.00005387
     atom   21 type  2   force =    -0.00000079   -0.00000131   -0.00001110
     atom   22 type  2   force =    -0.00000088    0.00000120   -0.00000841
     atom   23 type  2   force =     0.00000080    0.00000273   -0.00000772
     atom   24 type  2   force =     0.00000043   -0.00000352   -0.00001090
     atom   25 type  1   force =     0.00003646    0.00000647    0.00000946
     atom   26 type  1   force =     0.00000188    0.00000303   -0.00000548
     atom   27 type  1   force =     0.00001412    0.00001323    0.00000373
     atom   28 type  1   force =    -0.00000229   -0.00002284   -0.00002822
     atom   29 type  1   force =    -0.00000169    0.00000733   -0.00000605
     atom   30 type  1   force =    -0.00003865    0.00001081    0.00000543
     atom   31 type  1   force =     0.00000655   -0.00002710   -0.00002448
     atom   32 type  1   force =    -0.00001435    0.00000202    0.00000405
     atom   33 type  2   force =    -0.00000333    0.00000635   -0.00000261
     atom   34 type  2   force =    -0.00000254    0.00000053   -0.00000727
     atom   35 type  2   force =     0.00000281   -0.00000068   -0.00000699
     atom   36 type  2   force =     0.00000352    0.00000682   -0.00000314
     atom   37 type  1   force =     0.00000000    0.00000000    0.00000000
     atom   38 type  1   force =     0.00000000    0.00000000    0.00000000
     atom   39 type  1   force =     0.00000000    0.00000000    0.00000000
     atom   40 type  1   force =     0.00000000    0.00000000    0.00000000
     atom   41 type  1   force =     0.00000000    0.00000000    0.00000000
     atom   42 type  1   force =     0.00000000    0.00000000    0.00000000
     atom   43 type  1   force =     0.00000000    0.00000000    0.00000000
     atom   44 type  1   force =     0.00000000    0.00000000    0.00000000
     atom   45 type  2   force =     0.00000000    0.00000000    0.00000000
     atom   46 type  2   force =     0.00000000    0.00000000    0.00000000
     atom   47 type  2   force =     0.00000000    0.00000000    0.00000000
     atom   48 type  2   force =     0.00000000    0.00000000    0.00000000
     atom   49 type  1   force =    -0.00000280   -0.00000250   -0.00004551
     atom   50 type  1   force =    -0.00001381   -0.00000285   -0.00006146
     atom   51 type  1   force =    -0.00001612   -0.00001751   -0.00005220
     atom   52 type  1   force =    -0.00000363   -0.00000480    0.00001349
     atom   53 type  1   force =     0.00001179   -0.00001522   -0.00006096
     atom   54 type  1   force =     0.00000397    0.00000064   -0.00004245
     atom   55 type  1   force =     0.00000185   -0.00000455    0.00001210
     atom   56 type  1   force =     0.00001600   -0.00000359   -0.00005210
     atom   57 type  2   force =    -0.00000066   -0.00000517   -0.00000968
     atom   58 type  2   force =    -0.00000063   -0.00000056   -0.00000694
     atom   59 type  2   force =     0.00000073   -0.00000204   -0.00000748
     atom   60 type  2   force =     0.00000048   -0.00000305   -0.00001005
[...]
     atom  130 type  2   force =    -0.00000105   -0.00000051   -0.00000671
     atom  131 type  2   force =     0.00000114   -0.00000213   -0.00000724
     atom  132 type  2   force =     0.00000073   -0.00000296   -0.00000990
     atom  133 type  1   force =     0.00003624    0.00000210    0.00001301
     atom  134 type  1   force =     0.00000279    0.00000113   -0.00000484
     atom  135 type  1   force =     0.00001500   -0.00000302    0.00000605
     atom  136 type  1   force =    -0.00000525   -0.00003232   -0.00002007
     atom  137 type  1   force =    -0.00000124   -0.00000425   -0.00000497
     atom  138 type  1   force =    -0.00003708   -0.00000100    0.00001689
     atom  139 type  1   force =     0.00000347   -0.00002901   -0.00002479
     atom  140 type  1   force =    -0.00001528    0.00000697    0.00000609
     atom  141 type  2   force =    -0.00000378    0.00000446   -0.00000191
     atom  142 type  2   force =    -0.00000295   -0.00000267   -0.00000655
     atom  143 type  2   force =     0.00000275   -0.00000124   -0.00000689
     atom  144 type  2   force =     0.00000338    0.00000371   -0.00000119

     DFT-D3 dispersion contribution to forces:
     atom    1 type  1   force =    -0.00029263   -0.00003277    0.00413044
     atom    2 type  1   force =     0.00024373    0.00002658    0.00520606
     atom    3 type  1   force =     0.00006927    0.00001300    0.00665206
     atom    4 type  1   force =    -0.00030770   -0.00003398    0.00114087
     atom    5 type  1   force =    -0.00024372    0.00002655    0.00520609
     atom    6 type  1   force =     0.00029263   -0.00003280    0.00413045
     atom    7 type  1   force =     0.00030771   -0.00003395    0.00114086
     atom    8 type  1   force =    -0.00006927    0.00001303    0.00665204
     atom    9 type  2   force =     0.00001926   -0.00006157    0.00061571
     atom   10 type  2   force =    -0.00023811    0.00002258    0.00232131
     atom   11 type  2   force =     0.00023811    0.00002256    0.00232131
     atom   12 type  2   force =    -0.00001927   -0.00006157    0.00061570
     atom   13 type  1   force =    -0.00031526   -0.00003646    0.00004414
     atom   14 type  1   force =     0.00031112    0.00003680    0.00000976
     atom   15 type  1   force =     0.00029644    0.00003419    0.00041930
     atom   16 type  1   force =    -0.00030554   -0.00003415   -0.00026848
     atom   17 type  1   force =    -0.00031111    0.00003678    0.00000975
     atom   18 type  1   force =     0.00031526   -0.00003644    0.00004415
     atom   19 type  1   force =     0.00030553   -0.00003419   -0.00026847
     atom   20 type  1   force =    -0.00029645    0.00003421    0.00041933
     atom   21 type  2   force =     0.00000766   -0.00006058    0.00002303
     atom   22 type  2   force =    -0.00000696    0.00006301   -0.00000501
     atom   23 type  2   force =     0.00000696    0.00006300   -0.00000499
     atom   24 type  2   force =    -0.00000767   -0.00006058    0.00002304
     atom   25 type  1   force =    -0.00021889    0.00000112   -0.00537477
     atom   26 type  1   force =     0.00026743    0.00002779   -0.00411409
     atom   27 type  1   force =     0.00029667    0.00005068   -0.00096177
     atom   28 type  1   force =     0.00002883   -0.00001519   -0.00681811
     atom   29 type  1   force =    -0.00026750    0.00002774   -0.00411405
     atom   30 type  1   force =     0.00021887    0.00000114   -0.00537476
     atom   31 type  1   force =    -0.00002893   -0.00001517   -0.00681810
     atom   32 type  1   force =    -0.00029669    0.00005072   -0.00096178
     atom   33 type  2   force =     0.00024867   -0.00003585   -0.00242752
     atom   34 type  2   force =     0.00001508    0.00003462   -0.00059292
     atom   35 type  2   force =    -0.00001508    0.00003461   -0.00059292
     atom   36 type  2   force =    -0.00024869   -0.00003582   -0.00242752
     atom   37 type  1   force =    -0.00029263   -0.00003275    0.00413043
     atom   38 type  1   force =     0.00024373    0.00002657    0.00520607
     atom   39 type  1   force =     0.00006927    0.00001300    0.00665207
     atom   40 type  1   force =    -0.00030770   -0.00003397    0.00114088
     atom   41 type  1   force =    -0.00024372    0.00002656    0.00520610
     atom   42 type  1   force =     0.00029263   -0.00003279    0.00413046
     atom   43 type  1   force =     0.00030772   -0.00003392    0.00114086
     atom   44 type  1   force =    -0.00006927    0.00001303    0.00665205
     atom   45 type  2   force =     0.00001926   -0.00006156    0.00061571
     atom   46 type  2   force =    -0.00023811    0.00002258    0.00232132
     atom   47 type  2   force =     0.00023811    0.00002256    0.00232131
     atom   48 type  2   force =    -0.00001927   -0.00006157    0.00061571
     atom   49 type  1   force =    -0.00031526   -0.00003641    0.00004414
     atom   50 type  1   force =     0.00031111    0.00003677    0.00000976
     atom   51 type  1   force =     0.00029644    0.00003422    0.00041930
     atom   52 type  1   force =    -0.00030554   -0.00003413   -0.00026847
     atom   53 type  1   force =    -0.00031111    0.00003683    0.00000975
     atom   54 type  1   force =     0.00031526   -0.00003641    0.00004414
     atom   55 type  1   force =     0.00030553   -0.00003414   -0.00026848
     atom   56 type  1   force =    -0.00029644    0.00003419    0.00041933
     atom   57 type  2   force =     0.00000767   -0.00006057    0.00002303
     atom   58 type  2   force =    -0.00000696    0.00006301   -0.00000501
     atom   59 type  2   force =     0.00000696    0.00006301   -0.00000500
     atom   60 type  2   force =    -0.00000766   -0.00006058    0.00002304
[...]
     atom  130 type  2   force =    -0.00000696    0.00006300   -0.00000500
     atom  131 type  2   force =     0.00000696    0.00006301   -0.00000500
     atom  132 type  2   force =    -0.00000766   -0.00006058    0.00002303
     atom  133 type  1   force =    -0.00021887    0.00000119   -0.00537482
     atom  134 type  1   force =     0.00026749    0.00002778   -0.00411404
     atom  135 type  1   force =     0.00029669    0.00005074   -0.00096183
     atom  136 type  1   force =     0.00002893   -0.00001513   -0.00681811
     atom  137 type  1   force =    -0.00026742    0.00002783   -0.00411408
     atom  138 type  1   force =     0.00021890    0.00000117   -0.00537483
     atom  139 type  1   force =    -0.00002883   -0.00001515   -0.00681812
     atom  140 type  1   force =    -0.00029666    0.00005071   -0.00096183
     atom  141 type  2   force =     0.00024867   -0.00003578   -0.00242752
     atom  142 type  2   force =     0.00001507    0.00003463   -0.00059297
     atom  143 type  2   force =    -0.00001507    0.00003464   -0.00059297
     atom  144 type  2   force =    -0.00024865   -0.00003581   -0.00242752

     Total force =     0.005343     Total SCF correction =     0.000323
     Energy error            =      5.8E-05 Ry
     Gradient error          =      7.7E-04 Ry/Bohr

     bfgs converged in  21 scf cycles and  20 bfgs steps
     (criteria: energy <  1.0E-04 Ry, force <  1.0E-03 Ry/Bohr)

     End of BFGS Geometry Optimization

     Final energy             =  -35823.6140867918 Ry

     File ./outdir/pwscf.bfgs deleted, as requested
Begin final coordinates

ATOMIC_POSITIONS (angstrom)
Mo            1.1601412554        0.7392257782       -4.7791904319    0   0   0
Mo            3.5582088138        5.2792776257       -5.6024999980    0   0   0
Mo            1.1990311056        2.2700257574       -7.3746295965    0   0   0
Mo            3.5192974860        3.7485357419       -3.0070750745    0   0   0
Mo            3.5193108535        2.2700268748       -5.6025060514    0   0   0
Mo            1.1990431667        3.7485346169       -4.7791968568    0   0   0
Mo            3.5582050753        0.7392299359       -3.0070762219    0   0   0
Mo            1.1601310663        5.2792769131       -7.3746372035    0   0   0
C             4.7183435275        2.2717513872       -3.8931456964    0   0   0
C             0.0000004698        3.7468077016       -6.4885521187    0   0   0
C             2.3591713727        0.7375051534       -6.4885600432    0   0   0
C             2.3591696184        5.2810089619       -3.8931478365    0   0   0
Mo            1.1611869639        0.7407800663        0.4052869899
Mo            3.5598895659        5.2898291572       -0.4012829054
Mo            1.1955049422        2.2735654348       -2.1816758368
Mo            3.5112037060        3.7476310538        2.1755615478
Mo            3.5176159161        2.2805601932       -0.4012784923
Mo            1.1979700320        3.7500514894        0.4052914506
Mo            3.5663072981        0.7383652287        2.1755445956
Mo            1.1636456672        5.2828448767       -2.1816696736
C             4.7245430056        2.2749942654        1.3001540433
C            -0.0008177143        3.7556410875       -1.2948855314
C             2.3599905776        0.7463658495       -1.2948857877
C             2.3529783967        5.2842609386        1.3001476258
Mo            1.1285930549        0.6876905051        5.6085473220
Mo            3.5415360447        5.2755109536        4.7853212340
Mo            1.2107731699        2.2764468444        3.0186175246
Mo            3.6498683601        3.8576010017        7.0955936252
Mo            3.5359908726        2.2662255013        4.7852945517
Mo            1.2305723583        3.6969583072        5.6085459488
Mo            3.4275728768        0.8482768439        7.0956124476
Mo            1.1483733403        5.2857317348        3.0186158459
C             4.8865935638        2.2312157354        6.6379403900
C             0.0012654380        3.7566910176        3.8944030062
C             2.3579112238        0.7474213549        3.8944035560
C             2.1908132405        5.2404971041        6.6379274427
Mo            1.1601333869        6.7577643992       -4.7791904319    0   0   0
Mo            3.5582009453       11.2978162467       -5.6024999980    0   0   0
Mo            1.1990232371        8.2885643784       -7.3746295965    0   0   0
Mo            3.5192896175        9.7670743629       -3.0070750745    0   0   0
Mo            3.5193029850        8.2885654958       -5.6025060514    0   0   0
Mo            1.1990352982        9.7670732379       -4.7791968568    0   0   0
Mo            3.5581972068        6.7577685569       -3.0070762219    0   0   0
Mo            1.1601231978       11.2978155341       -7.3746372035    0   0   0
C             4.7183356590        8.2902900082       -3.8931456964    0   0   0
C            -0.0000073987        9.7653463226       -6.4885521187    0   0   0
C             2.3591635042        6.7560437744       -6.4885600432    0   0   0
C             2.3591617499       11.2995475829       -3.8931478365    0   0   0
Mo            1.1611811862        6.7593315541        0.4052895480
Mo            3.5598825796       11.3083621448       -0.4012861011
Mo            1.1955027248        8.2921124370       -2.1816840827
Mo            3.5111992784        9.7661780269        2.1755605450
Mo            3.5176038355        8.2991082926       -0.4012764135
Mo            1.1979588557        9.7685992282        0.4052866482
Mo            3.5662962990        6.7569133212        2.1755438031
Mo            1.1636401184       11.3013786234       -2.1816749337
C             4.7245326517        8.2935444965        1.3001508295
C            -0.0008247437        9.7741777505       -1.2948932059
C             2.3599827340        6.7649129605       -1.2948867462
C             2.3529721920       11.3027971046        1.3001473217
[...]
C             4.7175227216        9.7741689310       -1.2948899072
C             7.0783040297        6.7649111271       -1.2948931523
C             7.0713095912       11.3028043272        1.3001446554
Mo            5.8469513874        6.7062381965        5.6085971593
Mo            8.2598637364       11.2940382639        4.7852984153
Mo            5.9291282706        8.2950016767        3.0186320297
Mo            8.3682564764        9.8760556962        7.0956220125
Mo            8.2543171429        8.2847811953        4.7853310243
Mo            5.9488992933        9.7155108902        5.6085913495
Mo            8.1460250069        6.8668412233        7.0956084099
Mo            5.8667237651       11.3042607493        3.0186318536
C             0.1683232379        8.2497700608        6.6379232105
C             4.7196248903        9.7752427475        3.8944260498
C             7.0762078318        6.7659742766        3.8944295615
C             6.9092880285       11.2590252506        6.6379265957
End final coordinates

     Writing all to output data dir ./outdir/pwscf.save/

     General routines

     Parallel routines

   This run was terminated on:   3: 5:36  20Dec2023

   JOB DONE.
Application 11515717 resources: utime ~6963318s, stime ~86591s, Rss ~1982128, inblocks ~0, outblocks ~36056584