     Program PWSCF v.7.2 starts on 29Aug2023 at  3:56:37

     Waiting for input...
     Reading input from standard input
Warning: card &CELL ignored
Warning: card / ignored

     Current dimensions of program PWSCF are:
     Max number of different atomic species (ntypx) = 10
     Max number of k-points (npk) =  40000
     Max angular momentum in pseudopotentials (lmaxx) =  4
     file Mo.pbe-spn-kjpaw_psl.1.0.0.UPF: wavefunction(s)  4S 4D renormalized
     file S.pbe-n-kjpaw_psl.1.0.0.UPF: wavefunction(s)  3S 3P renormalized
     file Pd.pbe-spn-kjpaw_psl.1.0.0.UPF: wavefunction(s)  4S 5S 4D renormalized
     file H.pbe-kjpaw_psl.1.0.0.UPF: wavefunction(s)  1S renormalized

     R & G space division:  proc/nbgrp/npool/nimage =      36
     Subspace diagonalization in iterative solution of the eigenvalue problem:
     one sub-group per band group will be used

     Using Slab Decomposition

     bravais-lattice index     =            0
     lattice parameter (alat)  =      23.8199  a.u.
     unit-cell volume          =   33861.0370 (a.u.)^3
     number of atoms/cell      =          194
     number of atomic types    =            4
     number of electrons       =      1683.00
     number of Kohn-Sham states=         1010
     kinetic-energy cutoff     =      77.0000  Ry
     charge density cutoff     =     539.0000  Ry
     scf convergence threshold =      1.0E-06
     mixing beta               =       0.2000
     number of iterations used =            8  plain     mixing
     energy convergence thresh.=      1.0E-04
     force convergence thresh. =      1.0E-03
     Exchange-correlation= SLA  PW   PBX  PBC
                           (   1   4   3   4   0   0   0)
     nstep                     =         1000

     Effective Screening Medium Method
     Boundary Conditions: Vacuum-Slab-Vacuum
     total charge in unit cell        =   0.0000
     grid points for fit at edges     =        4

     celldm(1)=  23.819920  celldm(2)=   0.000000  celldm(3)=   0.000000
     celldm(4)=   0.000000  celldm(5)=   0.000000  celldm(6)=   0.000000

     crystal axes: (cart. coord. in units of alat)
               a(1) = (   1.000000   0.000000   0.000000 )
               a(2) = (  -0.499999   0.866026   0.000000 )
               a(3) = (   0.000000   0.000000   2.893000 )

     reciprocal axes: (cart. coord. in units 2 pi/alat)
               b(1) = (  1.000000  0.577349  0.000000 )
               b(2) = (  0.000000  1.154700  0.000000 )
               b(3) = (  0.000000  0.000000  0.345662 )

     PseudoPot. # 1 for Mo read from file:
     ./pseudo/Mo.pbe-spn-kjpaw_psl.1.0.0.UPF
     MD5 check sum: 317bf72632116215fd98f72de1686f13
     Pseudo is Projector augmented-wave + core cor, Zval = 14.0
     Generated using 'atomic' code by A. Dal Corso  v.7.2
     Shape of augmentation charge: PSQ
     Using radial grid of 1229 points,  6 beta functions with:
                l(1) =   0
                l(2) =   0
                l(3) =   1
                l(4) =   1
                l(5) =   2
                l(6) =   2
     Q(r) pseudized with 0 coefficients

     PseudoPot. # 2 for S  read from file:
     ./pseudo/S.pbe-n-kjpaw_psl.1.0.0.UPF
     MD5 check sum: 8b7b5302570d38d5e87fed6a1065abda
     Pseudo is Projector augmented-wave + core cor, Zval =  6.0
     Generated using 'atomic' code by A. Dal Corso  v.7.2
     Shape of augmentation charge: PSQ
     Using radial grid of 1151 points,  6 beta functions with:
                l(1) =   0
                l(2) =   0
                l(3) =   1
                l(4) =   1
                l(5) =   2
                l(6) =   2
     Q(r) pseudized with 0 coefficients

     PseudoPot. # 3 for Pd read from file:
     ./pseudo/Pd.pbe-spn-kjpaw_psl.1.0.0.UPF
     MD5 check sum: a60571a671f2502b8a6a4569d20a6edb
     Pseudo is Projector augmented-wave + core cor, Zval = 18.0
     Generated using 'atomic' code by A. Dal Corso  v.7.2
     Shape of augmentation charge: PSQ
     Using radial grid of 1235 points,  6 beta functions with:
                l(1) =   0
                l(2) =   0
                l(3) =   1
                l(4) =   1
                l(5) =   2
                l(6) =   2
     Q(r) pseudized with 0 coefficients

     PseudoPot. # 4 for H  read from file:
     ./pseudo/H.pbe-kjpaw_psl.1.0.0.UPF
     MD5 check sum: b3cb3c48ee3b58cc53e4d592112d0ca6
     Pseudo is Projector augmented-wave, Zval =  1.0
     Generated using 'atomic' code by A. Dal Corso  v.7.2
     Shape of augmentation charge: PSQ
     Using radial grid of  929 points,  2 beta functions with:
                l(1) =   0
                l(2) =   0
     Q(r) pseudized with 0 coefficients

     atomic species   valence    mass     pseudopotential
        Mo            14.00    95.95000     Mo( 1.00)
        S              6.00    32.06000     S ( 1.00)
        Pd            18.00   106.42000     Pd( 1.00)
        H              1.00     1.00800     H ( 1.00)

     No symmetry found

   Cartesian axes

     site n.     atom                  positions (alat units)
         1           Mo  tau(   1) = (   0.0000010   0.1443372  -0.7272732  )
         2           Mo  tau(   2) = (   0.1249995   0.0721706  -0.2424038  )
         3           S   tau(   3) = (   0.0000015   0.1443386  -0.3667807  )
         4           S   tau(   4) = (   0.1250010   0.0721682  -0.6030489  )
         5           S   tau(   5) = (   0.1250010   0.0721683  -0.8514963  )
         6           S   tau(   6) = (   0.0000015   0.1443389  -0.1180260  )
         7           Mo  tau(   7) = (   0.0000007   0.1443589   0.2424205  )
         8           Mo  tau(   8) = (   0.1250041   0.0720322   0.7266168  )
         9           S   tau(   9) = (   0.0000742   0.1444871   0.6020949  )
        10           S   tau(  10) = (   0.1250024   0.0721701   0.3667478  )
        11           S   tau(  11) = (   0.1250035   0.0721876   0.1180348  )
        12           S   tau(  12) = (  -0.0004118   0.1430864   0.8514340  )
        13           Mo  tau(  13) = (  -0.1249989   0.3608437  -0.7272732  )
        14           Mo  tau(  14) = (   0.0000030   0.2886752  -0.2424042  )
        15           S   tau(  15) = (  -0.1249977   0.3608450  -0.3667802  )
        16           S   tau(  16) = (   0.0000012   0.2886747  -0.6030489  )
        17           S   tau(  17) = (   0.0000012   0.2886748  -0.8514963  )
        18           S   tau(  18) = (  -0.1249977   0.3608454  -0.1180274  )
        19           Mo  tau(  19) = (  -0.1249729   0.3608584   0.2424608  )
        20           Mo  tau(  20) = (  -0.0007193   0.2876626   0.7275440  )
        21           S   tau(  21) = (  -0.1251115   0.3607789   0.6027257  )
        22           S   tau(  22) = (   0.0000621   0.2887099   0.3668377  )
        23           S   tau(  23) = (  -0.0000096   0.2886902   0.1180527  )
        24           S   tau(  24) = (  -0.1254673   0.3605734   0.8517408  )
        25           Mo  tau(  25) = (  -0.2499987   0.5773502  -0.7272732  )
        26           Mo  tau(  26) = (  -0.1249977   0.5051839  -0.2424055  )
        27           S   tau(  27) = (  -0.2499981   0.5773518  -0.3667809  )
        28           S   tau(  28) = (  -0.1249986   0.5051812  -0.6030489  )
        29           S   tau(  29) = (  -0.1249986   0.5051813  -0.8514963  )
        30           S   tau(  30) = (  -0.2499979   0.5773512  -0.1180266  )
        31           Mo  tau(  31) = (  -0.2499795   0.5773389   0.2424205  )
        32           Mo  tau(  32) = (  -0.1262356   0.5050639   0.7275441  )
        33           S   tau(  33) = (  -0.2498323   0.5773390   0.6020948  )
        34           S   tau(  34) = (  -0.1249376   0.5052159   0.3668377  )
        35           S   tau(  35) = (  -0.1249905   0.5051638   0.1180531  )
        36           S   tau(  36) = (  -0.2512883   0.5776183   0.8514340  )
        37           Mo  tau(  37) = (  -0.3749985   0.7938567  -0.7272732  )
        38           Mo  tau(  38) = (  -0.2500001   0.7216874  -0.2424031  )
        39           S   tau(  39) = (  -0.3749980   0.7938584  -0.3667800  )
        40           S   tau(  40) = (  -0.2499984   0.7216877  -0.6030489  )
        41           S   tau(  41) = (  -0.2499984   0.7216878  -0.8514963  )
        42           S   tau(  42) = (  -0.3749982   0.7938585  -0.1180264  )
        43           Mo  tau(  43) = (  -0.3749962   0.7938568   0.2423838  )
        44           Mo  tau(  44) = (  -0.2501148   0.7217588   0.7266170  )
        45           S   tau(  45) = (  -0.3749945   0.7938590   0.6021274  )
        46           S   tau(  46) = (  -0.2499958   0.7216877   0.3667488  )
        47           S   tau(  47) = (  -0.2499810   0.7216794   0.1180323  )
        48           S   tau(  48) = (  -0.3749953   0.7938585   0.8511588  )
        49           Mo  tau(  49) = (   0.2500010   0.1443372  -0.7272732  )
        50           Mo  tau(  50) = (   0.3750034   0.0721723  -0.2424032  )
        51           S   tau(  51) = (   0.2500017   0.1443391  -0.3667788  )
        52           S   tau(  52) = (   0.3750010   0.0721682  -0.6030489  )
        53           S   tau(  53) = (   0.3750010   0.0721683  -0.8514963  )
        54           S   tau(  54) = (   0.2500016   0.1443391  -0.1180271  )
        55           Mo  tau(  55) = (   0.2500054   0.1443594   0.2424211  )
        56           Mo  tau(  56) = (   0.3749279   0.0721263   0.7263991  )
        57           S   tau(  57) = (   0.2499344   0.1444864   0.6020948  )
        58           S   tau(  58) = (   0.3750316   0.0721860   0.3667597  )
        59           S   tau(  59) = (   0.3749924   0.0721644   0.1180346  )
        60           S   tau(  60) = (   0.2504199   0.1430865   0.8514340  )
[...]
       180           S   tau( 180) = (   0.5012979   0.5776190   0.8514332  )
       181           Mo  tau( 181) = (   0.3750016   0.7938567  -0.7272732  )
       182           Mo  tau( 182) = (   0.5000025   0.7216901  -0.2424039  )
       183           S   tau( 183) = (   0.3750019   0.7938578  -0.3667793  )
       184           S   tau( 184) = (   0.5000016   0.7216877  -0.6030489  )
       185           S   tau( 185) = (   0.5000016   0.7216878  -0.8514963  )
       186           S   tau( 186) = (   0.3750020   0.7938579  -0.1180272  )
       187           Mo  tau( 187) = (   0.3749848   0.7938487   0.2424206  )
       188           Mo  tau( 188) = (   0.5001249   0.7217591   0.7266160  )
       189           S   tau( 189) = (   0.3749125   0.7937251   0.6020942  )
       190           S   tau( 190) = (   0.5000021   0.7216868   0.3667472  )
       191           S   tau( 191) = (   0.4999874   0.7216780   0.1180346  )
       192           S   tau( 192) = (   0.3758826   0.7948451   0.8514332  )
       193           Pd  tau( 193) = (   0.1250063   0.5051842   0.9601361  )
       194           H   tau( 194) = (   0.3754871   0.3605724   0.9627957  )

     DFT-D3 Dispersion Correction (3-body terms):
       Reference C6 values for interpolation:

         atom   Coordination number   C6
         H          0.912             6.05
         H          0.000            15.18
         S          0.000           268.01
[...]
     atom   14 type  1   force =     0.00000000    0.00000000    0.00000000
     atom   15 type  2   force =     0.00000000    0.00000000    0.00000000
     atom   16 type  2   force =     0.00000000    0.00000000    0.00000000
     atom   17 type  2   force =     0.00000000    0.00000000    0.00000000
     atom   18 type  2   force =     0.00000000    0.00000000    0.00000000
     atom   19 type  1   force =    -0.00000266    0.00000392   -0.00001671
     atom   20 type  1   force =     0.00001544    0.00001618   -0.00001750
     atom   21 type  2   force =    -0.00000416    0.00000156   -0.00001230
     atom   22 type  2   force =    -0.00000021   -0.00000308   -0.00000987
     atom   23 type  2   force =    -0.00000415   -0.00000248   -0.00001305
     atom   24 type  2   force =    -0.00000397   -0.00000506   -0.00000387
     atom   25 type  1   force =     0.00000000    0.00000000    0.00000000
     atom   26 type  1   force =     0.00000000    0.00000000    0.00000000
     atom   27 type  2   force =     0.00000000    0.00000000    0.00000000
     atom   28 type  2   force =     0.00000000    0.00000000    0.00000000
     atom   29 type  2   force =     0.00000000    0.00000000    0.00000000
     atom   30 type  2   force =     0.00000000    0.00000000    0.00000000
     atom   31 type  1   force =    -0.00001055   -0.00000409   -0.00002266
     atom   32 type  1   force =    -0.00001276    0.00000245    0.00002780
     atom   33 type  2   force =    -0.00001901   -0.00000537   -0.00001632
     atom   34 type  2   force =    -0.00000333    0.00000097   -0.00000651
     atom   35 type  2   force =    -0.00000051   -0.00000646   -0.00001315
     atom   36 type  2   force =    -0.00000570    0.00000692    0.00000234
     atom   37 type  1   force =     0.00000000    0.00000000    0.00000000
     atom   38 type  1   force =     0.00000000    0.00000000    0.00000000
     atom   39 type  2   force =     0.00000000    0.00000000    0.00000000
     atom   40 type  2   force =     0.00000000    0.00000000    0.00000000
     atom   41 type  2   force =     0.00000000    0.00000000    0.00000000
     atom   42 type  2   force =     0.00000000    0.00000000    0.00000000
     atom   43 type  1   force =    -0.00000108   -0.00000773   -0.00001805
     atom   44 type  1   force =    -0.00000479   -0.00001018    0.00005161
     atom   45 type  2   force =    -0.00001062   -0.00000368   -0.00001003
     atom   46 type  2   force =    -0.00000475    0.00000039   -0.00000607
     atom   47 type  2   force =    -0.00000448    0.00000126   -0.00001406
     atom   48 type  2   force =    -0.00001054   -0.00000303   -0.00000622
     atom   49 type  1   force =     0.00000000    0.00000000    0.00000000
     atom   50 type  1   force =     0.00000000    0.00000000    0.00000000
     atom   51 type  2   force =     0.00000000    0.00000000    0.00000000
     atom   52 type  2   force =     0.00000000    0.00000000    0.00000000
     atom   53 type  2   force =     0.00000000    0.00000000    0.00000000
     atom   54 type  2   force =     0.00000000    0.00000000    0.00000000
     atom   55 type  1   force =     0.00000153    0.00001270   -0.00000814
     atom   56 type  1   force =     0.00000942    0.00001197   -0.00004153
     atom   57 type  2   force =     0.00000257    0.00000139   -0.00000781
     atom   58 type  2   force =     0.00000476    0.00000074   -0.00000767
     atom   59 type  2   force =    -0.00000026    0.00000303   -0.00001189
     atom   60 type  2   force =    -0.00000237    0.00001351   -0.00001163
[...]
     atom  180 type  2   force =    -0.00002156   -0.00000293   -0.00002530
     atom  181 type  1   force =     0.00000000    0.00000000    0.00000000
     atom  182 type  1   force =     0.00000000    0.00000000    0.00000000
     atom  183 type  2   force =     0.00000000    0.00000000    0.00000000
     atom  184 type  2   force =     0.00000000    0.00000000    0.00000000
     atom  185 type  2   force =     0.00000000    0.00000000    0.00000000
     atom  186 type  2   force =     0.00000000    0.00000000    0.00000000
     atom  187 type  1   force =    -0.00000169   -0.00001155   -0.00002578
     atom  188 type  1   force =    -0.00001015   -0.00005292   -0.00000544
     atom  189 type  2   force =     0.00000310   -0.00000857   -0.00000293
     atom  190 type  2   force =    -0.00000078   -0.00000045   -0.00000705
     atom  191 type  2   force =    -0.00000324    0.00000143   -0.00001111
     atom  192 type  2   force =     0.00000310   -0.00000828   -0.00001292
     atom  193 type  3   force =     0.00008823   -0.00003459    0.00001348
     atom  194 type  4   force =     0.00000070    0.00000047    0.00000099

     DFT-D3 dispersion contribution to forces:
     atom    1 type  1   force =     0.00000001    0.00000003    0.00255978
     atom    2 type  1   force =     0.00000008    0.00000018    0.00001461
     atom    3 type  2   force =     0.00000001   -0.00000002   -0.00003307
     atom    4 type  2   force =    -0.00000001   -0.00000001    0.00017153
     atom    5 type  2   force =    -0.00000000   -0.00000003    0.00441521
     atom    6 type  2   force =     0.00000023    0.00000024    0.00009680
     atom    7 type  1   force =    -0.00000584   -0.00000950   -0.00000325
     atom    8 type  1   force =    -0.00000496    0.00009841   -0.00243796
     atom    9 type  2   force =     0.00000395   -0.00000503   -0.00011755
     atom   10 type  2   force =    -0.00000303   -0.00001849    0.00003511
     atom   11 type  2   force =     0.00000055   -0.00000068   -0.00009620
     atom   12 type  2   force =     0.00010231    0.00026673   -0.00431441
     atom   13 type  1   force =     0.00000003    0.00000001    0.00255982
     atom   14 type  1   force =     0.00000024    0.00000010    0.00001474
     atom   15 type  2   force =     0.00000000   -0.00000001   -0.00003305
     atom   16 type  2   force =     0.00000001    0.00000000    0.00017156
     atom   17 type  2   force =    -0.00000001    0.00000001    0.00441514
     atom   18 type  2   force =     0.00000025    0.00000006    0.00009725
     atom   19 type  1   force =    -0.00001227   -0.00000809   -0.00001676
     atom   20 type  1   force =     0.00012387    0.00020076   -0.00223803
     atom   21 type  2   force =     0.00002211    0.00000437   -0.00007407
     atom   22 type  2   force =    -0.00000684   -0.00002109    0.00003480
     atom   23 type  2   force =     0.00000024    0.00000002   -0.00009937
     atom   24 type  2   force =     0.00034734    0.00019072   -0.00423896
     atom   25 type  1   force =     0.00000003   -0.00000002    0.00255978
     atom   26 type  1   force =     0.00000015    0.00000013    0.00001474
     atom   27 type  2   force =     0.00000002    0.00000002   -0.00003307
     atom   28 type  2   force =     0.00000001   -0.00000000    0.00017155
     atom   29 type  2   force =     0.00000000   -0.00000002    0.00441514
     atom   30 type  2   force =     0.00000011   -0.00000004    0.00009712
     atom   31 type  1   force =    -0.00000817    0.00000124   -0.00000890
     atom   32 type  1   force =     0.00024135   -0.00000364   -0.00224407
     atom   33 type  2   force =    -0.00000012    0.00000828   -0.00012005
     atom   34 type  2   force =    -0.00001867    0.00000561    0.00002646
     atom   35 type  2   force =    -0.00000039    0.00000005   -0.00009876
     atom   36 type  2   force =     0.00027087   -0.00005281   -0.00430365
     atom   37 type  1   force =    -0.00000000   -0.00000000    0.00255982
     atom   38 type  1   force =     0.00000012   -0.00000005    0.00001465
     atom   39 type  2   force =     0.00000000    0.00000002   -0.00003306
     atom   40 type  2   force =    -0.00000002    0.00000000    0.00017153
     atom   41 type  2   force =    -0.00000003    0.00000002    0.00441521
     atom   42 type  2   force =    -0.00000004    0.00000005    0.00009725
     atom   43 type  1   force =    -0.00000107    0.00000062    0.00000511
     atom   44 type  1   force =     0.00007642   -0.00004413   -0.00244665
     atom   45 type  2   force =    -0.00000593    0.00000341   -0.00014667
     atom   46 type  2   force =    -0.00001505    0.00000869    0.00002657
     atom   47 type  2   force =    -0.00000071    0.00000041   -0.00009563
     atom   48 type  2   force =    -0.00000852    0.00000491   -0.00440565
     atom   49 type  1   force =    -0.00000001    0.00000004    0.00255978
     atom   50 type  1   force =     0.00000002    0.00000027    0.00001495
     atom   51 type  2   force =    -0.00000001   -0.00000001   -0.00003302
     atom   52 type  2   force =     0.00000001    0.00000001    0.00017156
     atom   53 type  2   force =    -0.00000000    0.00000000    0.00441519
     atom   54 type  2   force =     0.00000045    0.00000057    0.00009748
     atom   55 type  1   force =     0.00000486   -0.00000625   -0.00000860
     atom   56 type  1   force =    -0.00001145    0.00005690   -0.00242280
     atom   57 type  2   force =    -0.00000425   -0.00000709   -0.00011299
     atom   58 type  2   force =    -0.00000035    0.00000344    0.00004055
     atom   59 type  2   force =    -0.00000027    0.00000058   -0.00009492
     atom   60 type  2   force =    -0.00001847    0.00041709   -0.00424408
[...]
     atom  180 type  2   force =    -0.00037045   -0.00019254   -0.00424407
     atom  181 type  1   force =    -0.00000003   -0.00000003    0.00255979
     atom  182 type  1   force =    -0.00000015   -0.00000015    0.00001460
     atom  183 type  2   force =    -0.00000001   -0.00000001   -0.00003306
     atom  184 type  2   force =     0.00000001    0.00000001    0.00017155
     atom  185 type  2   force =     0.00000002    0.00000001    0.00441521
     atom  186 type  2   force =    -0.00000013   -0.00000032    0.00009679
     atom  187 type  1   force =     0.00000531    0.00000980   -0.00000326
     atom  188 type  1   force =    -0.00008772   -0.00004492   -0.00243796
     atom  189 type  2   force =     0.00000632   -0.00000092   -0.00011755
     atom  190 type  2   force =     0.00001450    0.00001187    0.00003512
     atom  191 type  2   force =     0.00000086   -0.00000014   -0.00009621
     atom  192 type  2   force =    -0.00017984   -0.00022198   -0.00431441
     atom  193 type  3   force =     0.00028950   -0.00016727    0.00184406
     atom  194 type  4   force =    -0.00016932    0.00009775   -0.00137781

     Total force =     0.003042     Total SCF correction =     0.000252
     Energy error            =      2.0E-05 Ry
     Gradient error          =      9.9E-04 Ry/Bohr

     bfgs converged in   9 scf cycles and   8 bfgs steps
     (criteria: energy <  1.0E-04 Ry, force <  1.0E-03 Ry/Bohr)

     End of BFGS Geometry Optimization

     Final energy             =  -32306.6996999048 Ry

     File ./outdir/pwscf.bfgs deleted, as requested
Begin final coordinates

ATOMIC_POSITIONS (angstrom)
Mo            0.0000119917        1.8193638619       -9.1672481230    0   0   0
Mo            1.5756136568        0.9097075315       -3.0554901653    0   0   0
S             0.0000188998        1.8193822938       -4.6232556019    0   0   0
S             1.5756321638        0.9096773839       -7.6014065489    0   0   0
S             1.5756326175        0.9096785128      -10.7330757790    0   0   0
S             0.0000189190        1.8193860094       -1.4877129945    0   0   0
Mo           -0.0003312829        1.8193811007        3.0560415302
Mo            1.5665035038        0.9031844040        9.1586911592
S            -0.0022642435        1.8202930816        7.5862827533
S             1.5759782089        0.9100862175        4.6227213643
S             1.5757996802        0.9102523110        1.4881011361
S            -0.0097625994        1.8007907251       10.7345357802
Mo           -1.5756053507        4.5484193819       -9.1672481230    0   0   0
Mo            0.0000378379        3.6387394919       -3.0554952701    0   0   0
S            -1.5755913433        4.5484363582       -4.6232494962    0   0   0
S             0.0000148214        3.6387329039       -7.6014065489    0   0   0
S             0.0000152751        3.6387340328      -10.7330757790    0   0   0
S            -1.5755906502        4.5484413613       -1.4877305502    0   0   0
Mo           -1.5753299157        4.5486614702        3.0563339551
Mo           -0.0170971856        3.6217135834        9.1715178980
S            -1.5747769784        4.5500576271        7.5936156643
S             0.0010153375        3.6393297431        4.6234970961
S             0.0004476736        3.6388643589        1.4882427773
S            -1.5808948973        4.5485608675       10.7373528551
Mo           -3.1512226931        7.2774749019       -9.1672481230    0   0   0
Mo           -1.5755910988        6.3678216792       -3.0555115988    0   0   0
S            -3.1512162438        7.2774954350       -4.6232578178    0   0   0
S            -1.5756025210        6.3677884239       -7.6014065489    0   0   0
S            -1.5756020673        6.3677895528      -10.7330757790    0   0   0
S            -3.1512127704        7.2774877076       -1.4877200710    0   0   0
Mo           -3.1506247198        7.2776112270        3.0559927164
Mo           -1.5896115609        6.3679957607        9.1691956769
S            -3.1521736774        7.2746102880        7.5869346574
S            -1.5749312358        6.3680819666        4.6242529814
S            -1.5754499467        6.3676607980        1.4878656124
S            -3.1669357398        7.2817253994       10.7313862330
Mo           -4.7268400355       10.0065304219       -9.1672481230    0   0   0
Mo           -3.1512405618        9.0968403586       -3.0554816746    0   0   0
S            -4.7268341792       10.0065523623       -4.6232463762    0   0   0
S            -3.1512198634        9.0968439439       -7.6014065489    0   0   0
S            -3.1512194097        9.0968450728      -10.7330757790    0   0   0
S            -4.7268370797       10.0065537885       -1.4877176751    0   0   0
Mo           -4.7267766056       10.0065225737        3.0557663392
Mo           -3.1522326459        9.0974799220        9.1561404180
S            -4.7265803639       10.0064324441        7.5841648275
S            -3.1511184273        9.0968151622        4.6234338415
S            -3.1510915124        9.0968003508        1.4877624851
S            -4.7243090977       10.0051183763       10.7293057020
Mo            3.1512517547        1.8193638619       -9.1672481230    0   0   0
Mo            4.7269020221        0.9097289540       -3.0554823951    0   0   0
S             3.1512612351        1.8193882564       -4.6232320683    0   0   0
S             4.7268719268        0.9096773839       -7.6014065489    0   0   0
S             4.7268723805        0.9096785128      -10.7330757790    0   0   0
S             3.1512592485        1.8193890201       -1.4877261251    0   0   0
Mo            3.1518651486        1.8203883495        3.0557182984
Mo            4.7265180019        0.9109529719        9.1570405272
S             3.1473349792        1.8297737454        7.5947799058
S             4.7270332301        0.9098972250        4.6242175110
S             4.7267962914        0.9094249565        1.4880635969
S             3.1490745715        1.7879841100       10.7372077351
[...]
S             6.3286250102        7.2951263233       10.7371977852
Mo            4.7268792535       10.0065304219       -9.1672481230    0   0   0
Mo            6.3025111524        9.0968738021       -3.0554915260    0   0   0
S             4.7268840634       10.0065452125       -4.6232380477    0   0   0
S             6.3024994256        9.0968439439       -7.6014065489    0   0   0
S             6.3024998793        9.0968450728      -10.7330757790    0   0   0
S             4.7268847312       10.0065459141       -1.4877283294    0   0   0
Mo            4.7267172508       10.0068602606        3.0560394735
Mo            6.3035998972        9.1080683253        9.1586881426
S             4.7249819808       10.0081128043        7.5862832010
S             6.3023431831        9.0963824781        4.6227178058
S             6.3021132251        9.0964568244        1.4881037860
S             4.7381215905       10.0243542810       10.7345299172
Pd            1.5824613211        6.3638935235       12.1089018139
H             4.7239596769        4.5502208426       12.1034676603
End final coordinates

     Writing all to output data dir ./outdir/pwscf.save/

     General routines

     Parallel routines

   This run was terminated on:   5:20:15  30Aug2023

   JOB DONE.
Application 11110896 resources: utime ~3256336s, stime ~34494s, Rss ~3499772, inblocks ~0, outblocks ~52903992