     Program PWSCF v.7.2 starts on  4Oct2023 at  5:38:13

     Waiting for input...
     Reading input from standard input
Warning: card &CELL ignored
Warning: card / ignored

     Current dimensions of program PWSCF are:
     Max number of different atomic species (ntypx) = 10
     Max number of k-points (npk) =  40000
     Max angular momentum in pseudopotentials (lmaxx) =  4
     file Mo.pbe-spn-kjpaw_psl.1.0.0.UPF: wavefunction(s)  4S 4D renormalized
     file S.pbe-n-kjpaw_psl.1.0.0.UPF: wavefunction(s)  3S 3P renormalized
     file Pd.pbe-spn-kjpaw_psl.1.0.0.UPF: wavefunction(s)  4S 5S 4D renormalized

     R & G space division:  proc/nbgrp/npool/nimage =      36
     Subspace diagonalization in iterative solution of the eigenvalue problem:
     one sub-group per band group will be used

     Using Slab Decomposition

     bravais-lattice index     =            0
     lattice parameter (alat)  =      23.8395  a.u.
     unit-cell volume          =   28182.8498 (a.u.)^3
     number of atoms/cell      =          146
     number of atomic types    =            3
     number of electrons       =      1284.00
     number of Kohn-Sham states=          770
     kinetic-energy cutoff     =      77.0000  Ry
     charge density cutoff     =     539.0000  Ry
     scf convergence threshold =      1.0E-06
     mixing beta               =       0.2000
     number of iterations used =            8  plain     mixing
     energy convergence thresh.=      1.0E-04
     force convergence thresh. =      1.0E-03
     Exchange-correlation= SLA  PW   PBX  PBC
                           (   1   4   3   4   0   0   0)
     nstep                     =         1000

     Effective Screening Medium Method
     Boundary Conditions: Vacuum-Slab-Vacuum
     total charge in unit cell        =   0.0000
     grid points for fit at edges     =        4

     celldm(1)=  23.839504  celldm(2)=   0.000000  celldm(3)=   0.000000
     celldm(4)=   0.000000  celldm(5)=   0.000000  celldm(6)=   0.000000

     crystal axes: (cart. coord. in units of alat)
               a(1) = (   1.000000   0.000000   0.000000 )
               a(2) = (  -0.500001   0.866026   0.000000 )
               a(3) = (   0.000000   0.000000   2.401941 )

     reciprocal axes: (cart. coord. in units 2 pi/alat)
               b(1) = (  1.000000  0.577351  0.000000 )
               b(2) = (  0.000000  1.154700  0.000000 )
               b(3) = (  0.000000  0.000000  0.416330 )

     PseudoPot. # 1 for Mo read from file:
     ./pseudo/Mo.pbe-spn-kjpaw_psl.1.0.0.UPF
     MD5 check sum: 317bf72632116215fd98f72de1686f13
     Pseudo is Projector augmented-wave + core cor, Zval = 14.0
     Generated using 'atomic' code by A. Dal Corso  v.7.2
     Shape of augmentation charge: PSQ
     Using radial grid of 1229 points,  6 beta functions with:
                l(1) =   0
                l(2) =   0
                l(3) =   1
                l(4) =   1
                l(5) =   2
                l(6) =   2
     Q(r) pseudized with 0 coefficients

     PseudoPot. # 2 for S  read from file:
     ./pseudo/S.pbe-n-kjpaw_psl.1.0.0.UPF
     MD5 check sum: 8b7b5302570d38d5e87fed6a1065abda
     Pseudo is Projector augmented-wave + core cor, Zval =  6.0
     Generated using 'atomic' code by A. Dal Corso  v.7.2
     Shape of augmentation charge: PSQ
     Using radial grid of 1151 points,  6 beta functions with:
                l(1) =   0
                l(2) =   0
                l(3) =   1
                l(4) =   1
                l(5) =   2
                l(6) =   2
     Q(r) pseudized with 0 coefficients

     PseudoPot. # 3 for Pd read from file:
     ./pseudo/Pd.pbe-spn-kjpaw_psl.1.0.0.UPF
     MD5 check sum: a60571a671f2502b8a6a4569d20a6edb
     Pseudo is Projector augmented-wave + core cor, Zval = 18.0
     Generated using 'atomic' code by A. Dal Corso  v.7.2
     Shape of augmentation charge: PSQ
     Using radial grid of 1235 points,  6 beta functions with:
                l(1) =   0
                l(2) =   0
                l(3) =   1
                l(4) =   1
                l(5) =   2
                l(6) =   2
     Q(r) pseudized with 0 coefficients

     atomic species   valence    mass     pseudopotential
        Mo            14.00    95.95000     Mo( 1.00)
        S              6.00    32.06000     S ( 1.00)
        Pd            18.00   106.42000     Pd( 1.00)

     No symmetry found

   Cartesian axes

     site n.     atom                  positions (alat units)
         1           Mo  tau(   1) = (   0.1244805   0.2154429   0.4826124  )
         2           Mo  tau(   2) = (   0.1250004   0.0721694  -0.4825273  )
         3           Mo  tau(   3) = (   0.0000154   0.1443583  -0.0000534  )
         4           S   tau(   4) = (   0.0000004   0.0000006  -0.6064556  )
         5           S   tau(   5) = (   0.1249822   0.0722030  -0.1241916  )
         6           S   tau(   6) = (   0.0001873   0.1444894   0.3573292  )
         7           S   tau(   7) = (   0.0000004   0.0000005  -0.3584711  )
         8           S   tau(   8) = (   0.1250220   0.0721432   0.1241096  )
         9           S   tau(   9) = (  -0.0009222   0.1433430   0.6062350  )
        10           Mo  tau(  10) = (  -0.0011812   0.4330952   0.4826123  )
        11           Mo  tau(  11) = (   0.0000001   0.2886759  -0.4825273  )
        12           Mo  tau(  12) = (  -0.1249761   0.3608493  -0.0000533  )
        13           S   tau(  13) = (  -0.1249999   0.2165071  -0.6064556  )
        14           S   tau(  14) = (   0.0000232   0.2886904  -0.1241345  )
        15           S   tau(  15) = (  -0.1247753   0.3609305   0.3573291  )
        16           S   tau(  16) = (  -0.1249998   0.2165070  -0.3584711  )
        17           S   tau(  17) = (   0.0000901   0.2887289   0.1242236  )
        18           S   tau(  18) = (  -0.1263226   0.3605428   0.6062351  )
        19           Mo  tau(  19) = (  -0.1251400   0.6495983   0.4819363  )
        20           Mo  tau(  20) = (  -0.1250002   0.5051824  -0.4825273  )
        21           Mo  tau(  21) = (  -0.2500026   0.5773383  -0.0001491  )
        22           S   tau(  22) = (  -0.2500002   0.4330136  -0.6064556  )
        23           S   tau(  23) = (  -0.1249812   0.5051509  -0.1241919  )
        24           S   tau(  24) = (  -0.2500015   0.5775831   0.3575295  )
        25           S   tau(  25) = (  -0.2500001   0.4330135  -0.3584711  )
        26           S   tau(  26) = (  -0.1250129   0.5052153   0.1241101  )
        27           S   tau(  27) = (  -0.2500018   0.5771934   0.6060379  )
        28           Mo  tau(  28) = (   0.2499987  -0.0001601   0.4819365  )
        29           Mo  tau(  29) = (  -0.2500004   0.7216889  -0.4825273  )
        30           Mo  tau(  30) = (  -0.3750135   0.7938631  -0.0001491  )
        31           S   tau(  31) = (  -0.3750004   0.6495201  -0.6064556  )
        32           S   tau(  32) = (  -0.2500026   0.7216883  -0.1242347  )
        33           S   tau(  33) = (  -0.3747997   0.7937400   0.3575295  )
        34           S   tau(  34) = (  -0.3750004   0.6495200  -0.3584711  )
        35           S   tau(  35) = (  -0.2500029   0.7216883   0.1240299  )
        36           S   tau(  36) = (  -0.3751376   0.7939346   0.6060379  )
        37           Mo  tau(  37) = (   0.3755166   0.2154425   0.4826119  )
        38           Mo  tau(  38) = (   0.3750004   0.0721694  -0.4825273  )
        39           Mo  tau(  39) = (   0.2499990   0.1443474  -0.0000968  )
        40           S   tau(  40) = (   0.2500004   0.0000006  -0.6064556  )
        41           S   tau(  41) = (   0.3750152   0.0722028  -0.1241921  )
        42           S   tau(  42) = (   0.2499983   0.1443201   0.3580593  )
        43           S   tau(  43) = (   0.2500004   0.0000005  -0.3584711  )
        44           S   tau(  44) = (   0.3749754   0.0721432   0.1241106  )
        45           S   tau(  45) = (   0.2499987   0.1437775   0.6065499  )
        46           Mo  tau(  46) = (   0.2499984   0.4330123   0.4872880  )
        47           Mo  tau(  47) = (   0.2500001   0.2886759  -0.4825273  )
        48           Mo  tau(  48) = (   0.1250277   0.3608616  -0.0000572  )
        49           S   tau(  49) = (   0.1250001   0.2165071  -0.6064556  )
        50           S   tau(  50) = (   0.2499987   0.2886898  -0.1241693  )
        51           S   tau(  51) = (   0.1266397   0.3617911   0.3615924  )
        52           S   tau(  52) = (   0.1250002   0.2165070  -0.3584711  )
        53           S   tau(  53) = (   0.2499988   0.2886671   0.1241958  )
        54           S   tau(  54) = (   0.1173054   0.3564020   0.6108885  )
        55           Mo  tau(  55) = (   0.1243363   0.6504991   0.4826116  )
        56           Mo  tau(  56) = (   0.1249998   0.5051824  -0.4825273  )
        57           Mo  tau(  57) = (   0.0000060   0.5773464  -0.0000969  )
        58           S   tau(  58) = (  -0.0000002   0.4330136  -0.6064556  )
        59           S   tau(  59) = (   0.1250101   0.5051751  -0.1241696  )
        60           S   tau(  60) = (  -0.0000165   0.5773581   0.3580590  )
[...]
       132           S   tau( 132) = (   0.5000130   0.5773585   0.3580587  )
       133           S   tau( 133) = (   0.4999999   0.4330135  -0.3584711  )
       134           S   tau( 134) = (   0.6250081   0.5052147   0.1241104  )
       135           S   tau( 135) = (   0.5004826   0.5776298   0.6065487  )
       136           Mo  tau( 136) = (  -0.0000706   0.0000401   0.4813070  )
       137           Mo  tau( 137) = (   0.4999996   0.7216889  -0.4825273  )
       138           Mo  tau( 138) = (   0.3749881   0.7938314  -0.0000535  )
       139           S   tau( 139) = (   0.3749996   0.6495201  -0.6064556  )
       140           S   tau( 140) = (   0.4999594   0.7216844  -0.1241918  )
       141           S   tau( 141) = (   0.3749610   0.7936184   0.3573285  )
       142           S   tau( 142) = (   0.3749996   0.6495200  -0.3584711  )
       143           S   tau( 143) = (   0.5000310   0.7216802   0.1241101  )
       144           S   tau( 144) = (   0.3753979   0.7951517   0.6062337  )
       145           Pd  tau( 145) = (   0.2499985   0.4330123   0.7148096  )
       146           Pd  tau( 146) = (  -0.0004756   0.5776309   0.7809551  )

     DFT-D3 Dispersion Correction (3-body terms):
       Reference C6 values for interpolation:

         atom   Coordination number   C6
         S          0.000           268.01
         S          0.995           261.99
         S          1.990           251.62
         Mo         0.000          1691.79
         Mo         1.942          1004.01
         Mo        11.056           674.22
         Pd         0.000          1217.01
         Pd         1.863           573.90
         Pd         5.710           531.75

       Values used:

         atom   Coordination number  R0_AB[au]  C6      C8
         Mo        10.173            3.547    674.22  77634.20
         Mo        10.189            3.547    674.22  77634.20
         Mo        10.201            3.547    674.22  77634.20
         S          3.753            3.128    251.62  12327.25
[...]
     atom   13 type  2   force =     0.00000000    0.00000000    0.00000000
     atom   14 type  2   force =     0.00000006    0.00000058    0.00000193
     atom   15 type  2   force =    -0.00001434    0.00001095    0.00001880
     atom   16 type  2   force =     0.00000000    0.00000000    0.00000000
     atom   17 type  2   force =    -0.00000467   -0.00000428    0.00000115
     atom   18 type  2   force =    -0.00001296    0.00000362    0.00000021
     atom   19 type  1   force =     0.00003640   -0.00002218    0.00003929
     atom   20 type  1   force =     0.00000000    0.00000000    0.00000000
     atom   21 type  1   force =    -0.00000414    0.00000768   -0.00000956
     atom   22 type  2   force =     0.00000000    0.00000000    0.00000000
     atom   23 type  2   force =    -0.00000091    0.00000180    0.00000115
     atom   24 type  2   force =     0.00000681   -0.00000758    0.00001712
     atom   25 type  2   force =     0.00000000    0.00000000    0.00000000
     atom   26 type  2   force =    -0.00000539   -0.00000106   -0.00000150
     atom   27 type  2   force =     0.00001224    0.00000136    0.00000405
     atom   28 type  1   force =     0.00002493   -0.00001845    0.00003202
     atom   29 type  1   force =     0.00000000    0.00000000    0.00000000
     atom   30 type  1   force =     0.00001099   -0.00000620    0.00001310
     atom   31 type  2   force =     0.00000000    0.00000000    0.00000000
     atom   32 type  2   force =     0.00000165   -0.00000122    0.00000673
     atom   33 type  2   force =     0.00001029   -0.00000585   -0.00000031
     atom   34 type  2   force =     0.00000000    0.00000000    0.00000000
     atom   35 type  2   force =    -0.00000378    0.00000190   -0.00000135
     atom   36 type  2   force =     0.00000435   -0.00000257    0.00001804
     atom   37 type  1   force =     0.00000358    0.00000753    0.00001689
     atom   38 type  1   force =     0.00000000    0.00000000    0.00000000
     atom   39 type  1   force =     0.00000045   -0.00001454    0.00000563
     atom   40 type  2   force =     0.00000000    0.00000000    0.00000000
     atom   41 type  2   force =    -0.00000126   -0.00000647    0.00000189
     atom   42 type  2   force =     0.00001274   -0.00000094    0.00000475
     atom   43 type  2   force =     0.00000000    0.00000000    0.00000000
     atom   44 type  2   force =     0.00000208   -0.00000160    0.00000239
     atom   45 type  2   force =    -0.00000009   -0.00000145    0.00001489
     atom   46 type  1   force =     0.00003226   -0.00001972   -0.00000198
     atom   47 type  1   force =     0.00000000    0.00000000    0.00000000
     atom   48 type  1   force =    -0.00000524    0.00000004   -0.00001496
     atom   49 type  2   force =     0.00000000    0.00000000    0.00000000
     atom   50 type  2   force =    -0.00000207   -0.00000317    0.00000014
     atom   51 type  2   force =    -0.00000113    0.00000353    0.00001074
     atom   52 type  2   force =     0.00000000    0.00000000    0.00000000
     atom   53 type  2   force =     0.00000597   -0.00000715   -0.00000059
     atom   54 type  2   force =    -0.00000281   -0.00002361    0.00000328
     atom   55 type  1   force =    -0.00007916    0.00002508   -0.00001196
     atom   56 type  1   force =     0.00000000    0.00000000    0.00000000
     atom   57 type  1   force =    -0.00000508    0.00000204   -0.00002519
     atom   58 type  2   force =     0.00000000    0.00000000    0.00000000
     atom   59 type  2   force =    -0.00000152    0.00000057   -0.00000007
     atom   60 type  2   force =    -0.00000696    0.00000336    0.00004042
[...]
     atom  132 type  2   force =     0.00000731   -0.00001039    0.00000448
     atom  133 type  2   force =     0.00000000    0.00000000    0.00000000
     atom  134 type  2   force =     0.00000272   -0.00000123    0.00000189
     atom  135 type  2   force =     0.00000161    0.00000096    0.00001517
     atom  136 type  1   force =    -0.00000041    0.00000009    0.00005248
     atom  137 type  1   force =     0.00000000    0.00000000    0.00000000
     atom  138 type  1   force =     0.00000858   -0.00000521    0.00000916
     atom  139 type  2   force =     0.00000000    0.00000000    0.00000000
     atom  140 type  2   force =     0.00000635   -0.00000032    0.00000405
     atom  141 type  2   force =    -0.00000216    0.00000442   -0.00000140
     atom  142 type  2   force =     0.00000000    0.00000000    0.00000000
     atom  143 type  2   force =     0.00000736    0.00000003    0.00000022
     atom  144 type  2   force =     0.00000336    0.00000639    0.00002023
     atom  145 type  3   force =     0.00013332   -0.00007733    0.00010811
     atom  146 type  3   force =    -0.00006623    0.00003831    0.00016177

     DFT-D3 dispersion contribution to forces:
     atom    1 type  1   force =     0.00010905    0.00049091   -0.00204988
     atom    2 type  1   force =     0.00000073   -0.00000018    0.00260468
     atom    3 type  1   force =    -0.00001033   -0.00000408   -0.00001625
     atom    4 type  2   force =     0.00000000   -0.00000000    0.00441077
     atom    5 type  2   force =     0.00000228   -0.00000095   -0.00004839
     atom    6 type  2   force =    -0.00000822    0.00000687   -0.00013693
     atom    7 type  2   force =     0.00000074   -0.00000043    0.00023640
     atom    8 type  2   force =    -0.00001176   -0.00001501    0.00009545
     atom    9 type  2   force =     0.00020733    0.00039426   -0.00422710
     atom   10 type  1   force =     0.00040294    0.00017671   -0.00178071
     atom   11 type  1   force =    -0.00000008    0.00000055    0.00260458
     atom   12 type  1   force =    -0.00000541   -0.00000341   -0.00002060
     atom   13 type  2   force =    -0.00000002    0.00000004    0.00441078
     atom   14 type  2   force =    -0.00000104    0.00000143   -0.00004875
     atom   15 type  2   force =     0.00005939    0.00001267   -0.00007494
     atom   16 type  2   force =    -0.00000052    0.00000069    0.00023699
     atom   17 type  2   force =    -0.00001499   -0.00000238    0.00010330
     atom   18 type  2   force =     0.00063154    0.00041938   -0.00396555
     atom   19 type  1   force =     0.00039583   -0.00022854   -0.00206433
     atom   20 type  1   force =    -0.00000035    0.00000030    0.00260585
     atom   21 type  1   force =     0.00000552   -0.00000157   -0.00002310
     atom   22 type  2   force =    -0.00000001   -0.00000001    0.00441106
     atom   23 type  2   force =    -0.00000057    0.00000206   -0.00004745
     atom   24 type  2   force =     0.00001223   -0.00000591   -0.00016717
     atom   25 type  2   force =    -0.00000073    0.00000054    0.00023688
     atom   26 type  2   force =    -0.00001161    0.00000420    0.00009078
     atom   27 type  2   force =     0.00050720   -0.00007339   -0.00413524
     atom   28 type  1   force =     0.00003626    0.00005809   -0.00249876
     atom   29 type  1   force =     0.00000052   -0.00000030    0.00260586
     atom   30 type  1   force =    -0.00000261    0.00000151   -0.00001912
     atom   31 type  2   force =     0.00000007   -0.00000001    0.00441107
     atom   32 type  2   force =     0.00000214   -0.00000122   -0.00004814
     atom   33 type  2   force =    -0.00001324    0.00000765   -0.00019555
     atom   34 type  2   force =     0.00000036   -0.00000053    0.00023686
     atom   35 type  2   force =     0.00000387   -0.00000224    0.00010120
     atom   36 type  2   force =     0.00002590   -0.00001495   -0.00438436
     atom   37 type  1   force =    -0.00021678    0.00031953   -0.00223178
     atom   38 type  1   force =     0.00000043   -0.00000011    0.00260611
     atom   39 type  1   force =    -0.00000425   -0.00001166   -0.00004194
     atom   40 type  2   force =     0.00000005   -0.00000006    0.00441107
     atom   41 type  2   force =     0.00000068   -0.00000162   -0.00004962
     atom   42 type  2   force =    -0.00002383    0.00003026   -0.00010950
     atom   43 type  2   force =     0.00000064   -0.00000005    0.00023686
     atom   44 type  2   force =     0.00000529   -0.00002726    0.00009244
     atom   45 type  2   force =    -0.00003898    0.00061965   -0.00416671
     atom   46 type  1   force =    -0.00029475    0.00017016   -0.00206823
     atom   47 type  1   force =     0.00000059    0.00000000    0.00260530
     atom   48 type  1   force =    -0.00001361   -0.00000276   -0.00004865
     atom   49 type  2   force =     0.00000002   -0.00000002    0.00441072
     atom   50 type  2   force =     0.00000081   -0.00000083   -0.00005440
     atom   51 type  2   force =    -0.00000544    0.00009496    0.00027722
     atom   52 type  2   force =     0.00000085   -0.00000001    0.00023671
     atom   53 type  2   force =    -0.00000958   -0.00001388    0.00008607
     atom   54 type  2   force =     0.00010555    0.00037589   -0.00411812
     atom   55 type  1   force =     0.00004842   -0.00043733   -0.00178071
     atom   56 type  1   force =    -0.00000018    0.00000010    0.00260500
     atom   57 type  1   force =    -0.00000804    0.00000464   -0.00003263
     atom   58 type  2   force =    -0.00000004    0.00000004    0.00441063
     atom   59 type  2   force =    -0.00000259    0.00000150   -0.00005197
     atom   60 type  2   force =     0.00008433   -0.00004869    0.00016664
[...]
     atom  132 type  2   force =    -0.00003812    0.00000551   -0.00010950
     atom  133 type  2   force =     0.00000029   -0.00000047    0.00023685
     atom  134 type  2   force =     0.00002626    0.00000906    0.00009244
     atom  135 type  2   force =    -0.00055612   -0.00027607   -0.00416671
     atom  136 type  1   force =    -0.00002551    0.00001473   -0.00253764
     atom  137 type  1   force =     0.00000052   -0.00000055    0.00260468
     atom  138 type  1   force =    -0.00000163    0.00001099   -0.00001626
     atom  139 type  2   force =     0.00000002   -0.00000000    0.00441072
     atom  140 type  2   force =     0.00000196   -0.00000149   -0.00004839
     atom  141 type  2   force =    -0.00001005    0.00000368   -0.00013693
     atom  142 type  2   force =     0.00000043   -0.00000073    0.00023671
     atom  143 type  2   force =     0.00000712    0.00001769    0.00009545
     atom  144 type  2   force =    -0.00023776   -0.00037667   -0.00422710
     atom  145 type  3   force =    -0.00010411    0.00006010   -0.00625256
     atom  146 type  3   force =    -0.00014520    0.00008385   -0.00642604

     Total force =     0.003139     Total SCF correction =     0.000353
     SCF correction compared to forces is large: reduce conv_thr to get better values
     Energy error            =      2.4E-05 Ry
     Gradient error          =      8.5E-04 Ry/Bohr

     bfgs converged in  30 scf cycles and  29 bfgs steps
     (criteria: energy <  1.0E-04 Ry, force <  1.0E-03 Ry/Bohr)

     End of BFGS Geometry Optimization

     Final energy             =  -24869.1014453943 Ry

     File ./outdir/pwscf.bfgs deleted, as requested
Begin final coordinates

ATOMIC_POSITIONS (angstrom)
Mo            1.5613385898        2.7152475981        6.0780526492
Mo            1.5769197498        0.9104407117       -6.0872367793    0   0   0
Mo           -0.0003789060        1.8213879006        0.0005460624
S             0.0000044503        0.0000077495       -7.6506323570    0   0   0
S             1.5757666207        0.9107751140       -1.5658474660
S            -0.0085669678        1.8262088332        4.4970849397
S             0.0000053241        0.0000068460       -4.5222282367    0   0   0
S             1.5773815389        0.9104631608        1.5666014294
S            -0.0252867820        1.8122042119        7.6374885098
Mo           -0.0300438046        5.4614148881        6.0586293976
Mo            0.0000011799        3.6417399547       -6.0872367793    0   0   0
Mo           -1.5775010081        4.5524511220       -0.0014621767
S            -1.5769141197        2.7313069925       -7.6506323570    0   0   0
S             0.0000032898        3.6414022786       -1.5656210934
S            -1.6045412110        4.5553639049        4.4963044339
S            -1.5769132459        2.7313060890       -4.5222282367    0   0   0
S            -0.0002650036        3.6435167034        1.5673785559
S            -1.5942575562        4.5523702546        7.6390318810
Mo           -1.5823344695        8.1970139991        6.0915256991
Mo           -1.5769173901        6.3730391977       -6.0872367793    0   0   0
Mo           -3.1541107019        7.2835397784       -0.0031913631
S            -3.1538326896        5.4626062355       -7.6506323570    0   0   0
S            -1.5769311170        6.3724890293       -1.5679152750
S            -3.1597737788        7.2908141570        4.5211089546
S            -3.1538318159        5.4626053320       -4.5222282367    0   0   0
S            -1.5775330035        6.3739786067        1.5643947755
S            -3.1587701677        7.2848686432        7.6558181872
Mo            3.1467006544        0.0019791712        6.0872371590
Mo           -3.1538359601        9.1043384407       -6.0872367793    0   0   0
Mo           -4.7310768469       10.0149298461       -0.0009707393
S            -4.7307512596        8.1939054785       -7.6506323570    0   0   0
S            -3.1549485530        9.1049477790       -1.5679699264
S            -4.7285465761       10.0134798605        4.5117469337
S            -4.7307503859        8.1939045750       -4.5222282367    0   0   0
S            -3.1530727546        9.1038712854        1.5642675109
S            -4.7463716005       10.0237720426        7.6466197592
Mo            4.7195320981        2.7304950140        6.1060685387
Mo            4.7307503218        0.9104407117       -6.0872367793    0   0   0
Mo            3.1534793043        1.8210484242       -0.0014096361
S             3.1538350223        0.0000077495       -7.6506323570    0   0   0
S             4.7298545361        0.9110452479       -1.5680488648
S             3.1542583833        1.8227731010        4.5215200099
S             3.1538358961        0.0000068460       -4.5222282367    0   0   0
S             4.7305993801        0.9099107017        1.5646410446
S             3.1342902536        1.8189694437        7.6584984068
Mo            3.1331079879        5.4745500992        6.1442824904
Mo            3.1538317519        3.6417399547       -6.0872367793    0   0   0
Mo            1.5766983438        4.5525835612       -0.0004170336
S             1.5769164523        2.7313069925       -7.6506323570    0   0   0
S             3.1528223996        3.6419213171       -1.5667264418
S             1.5915727616        4.5630474246        4.5469225802
S             1.5769173261        2.7313060890       -4.5222282367    0   0   0
S             3.1540238863        3.6417949733        1.5663260061
S             1.4501572245        4.4926434121        7.6830325887
Mo            1.5629029599        8.2204907305        6.0586322992
Mo            1.5769131819        6.3730391977       -6.0872367793    0   0   0
Mo           -0.0002766370        7.2836011978       -0.0024667863
S            -0.0000021176        5.4626062355       -7.6506323570    0   0   0
S             1.5773015284        6.3727875742       -1.5665675566
S            -0.0154387255        7.2923649299        4.5060272361
[...]
S             6.3062089937        7.2821257618        4.5215211352
S             6.3076599001        5.4626053320       -4.5222282367    0   0   0
S             7.8849301221        6.3733888138        1.5646439782
S             6.2995195387        7.3013208219        7.6584982013
Mo           -0.0094625759        0.0054570924        6.0624381554
Mo            6.3076557559        9.1043384407       -6.0872367793    0   0   0
Mo            4.7300768847       10.0148021685        0.0005442026
S             4.7307404564        8.1939054785       -7.6506323570    0   0   0
S             6.3067647655        9.1051246189       -1.5658462967
S             4.7218188737       10.0194991269        4.4970881474
S             4.7307413301        8.1939045750       -4.5222282367    0   0   0
S             6.3078402286        9.1038856939        1.5665990446
S             4.7255885672       10.0409815632        7.6374886173
Pd            3.0420244995        5.5271391950        8.9981665608
Pd            0.6722976554        6.8952596922        9.7296625916
End final coordinates

     Writing all to output data dir ./outdir/pwscf.save/

     General routines

     Parallel routines

   This run was terminated on:  21:35:39   5Oct2023

   JOB DONE.
Application 11264995 resources: utime ~5113683s, stime ~64471s, Rss ~2364772, inblocks ~0, outblocks ~41447880