     Program PWSCF v.7.2 starts on  1Sep2023 at 15:41:32

     Waiting for input...
     Reading input from standard input
Warning: card &CELL ignored
Warning: card / ignored

     Current dimensions of program PWSCF are:
     Max number of different atomic species (ntypx) = 10
     Max number of k-points (npk) =  40000
     Max angular momentum in pseudopotentials (lmaxx) =  4
     file Mo.pbe-spn-kjpaw_psl.1.0.0.UPF: wavefunction(s)  4S 4D renormalized
     file S.pbe-n-kjpaw_psl.1.0.0.UPF: wavefunction(s)  3S 3P renormalized
     file Pd.pbe-spn-kjpaw_psl.1.0.0.UPF: wavefunction(s)  4S 5S 4D renormalized
     file H.pbe-kjpaw_psl.1.0.0.UPF: wavefunction(s)  1S renormalized

     R & G space division:  proc/nbgrp/npool/nimage =      36
     Subspace diagonalization in iterative solution of the eigenvalue problem:
     one sub-group per band group will be used

     Using Slab Decomposition

     bravais-lattice index     =            0
     lattice parameter (alat)  =      23.8199  a.u.
     unit-cell volume          =   33861.0370 (a.u.)^3
     number of atoms/cell      =          194
     number of atomic types    =            4
     number of electrons       =      1683.00
     number of Kohn-Sham states=         1010
     kinetic-energy cutoff     =      77.0000  Ry
     charge density cutoff     =     539.0000  Ry
     scf convergence threshold =      1.0E-06
     mixing beta               =       0.2000
     number of iterations used =            8  plain     mixing
     energy convergence thresh.=      1.0E-04
     force convergence thresh. =      1.0E-03
     Exchange-correlation= SLA  PW   PBX  PBC
                           (   1   4   3   4   0   0   0)
     nstep                     =         1000

     Effective Screening Medium Method
     Boundary Conditions: Vacuum-Slab-Vacuum
     total charge in unit cell        =   0.0000
     grid points for fit at edges     =        4

     celldm(1)=  23.819920  celldm(2)=   0.000000  celldm(3)=   0.000000
     celldm(4)=   0.000000  celldm(5)=   0.000000  celldm(6)=   0.000000

     crystal axes: (cart. coord. in units of alat)
               a(1) = (   1.000000   0.000000   0.000000 )
               a(2) = (  -0.499999   0.866026   0.000000 )
               a(3) = (   0.000000   0.000000   2.893000 )

     reciprocal axes: (cart. coord. in units 2 pi/alat)
               b(1) = (  1.000000  0.577349  0.000000 )
               b(2) = (  0.000000  1.154700  0.000000 )
               b(3) = (  0.000000  0.000000  0.345662 )

     PseudoPot. # 1 for Mo read from file:
     ./pseudo/Mo.pbe-spn-kjpaw_psl.1.0.0.UPF
     MD5 check sum: 317bf72632116215fd98f72de1686f13
     Pseudo is Projector augmented-wave + core cor, Zval = 14.0
     Generated using 'atomic' code by A. Dal Corso  v.7.2
     Shape of augmentation charge: PSQ
     Using radial grid of 1229 points,  6 beta functions with:
                l(1) =   0
                l(2) =   0
                l(3) =   1
                l(4) =   1
                l(5) =   2
                l(6) =   2
     Q(r) pseudized with 0 coefficients

     PseudoPot. # 2 for S  read from file:
     ./pseudo/S.pbe-n-kjpaw_psl.1.0.0.UPF
     MD5 check sum: 8b7b5302570d38d5e87fed6a1065abda
     Pseudo is Projector augmented-wave + core cor, Zval =  6.0
     Generated using 'atomic' code by A. Dal Corso  v.7.2
     Shape of augmentation charge: PSQ
     Using radial grid of 1151 points,  6 beta functions with:
                l(1) =   0
                l(2) =   0
                l(3) =   1
                l(4) =   1
                l(5) =   2
                l(6) =   2
     Q(r) pseudized with 0 coefficients

     PseudoPot. # 3 for Pd read from file:
     ./pseudo/Pd.pbe-spn-kjpaw_psl.1.0.0.UPF
     MD5 check sum: a60571a671f2502b8a6a4569d20a6edb
     Pseudo is Projector augmented-wave + core cor, Zval = 18.0
     Generated using 'atomic' code by A. Dal Corso  v.7.2
     Shape of augmentation charge: PSQ
     Using radial grid of 1235 points,  6 beta functions with:
                l(1) =   0
                l(2) =   0
                l(3) =   1
                l(4) =   1
                l(5) =   2
                l(6) =   2
     Q(r) pseudized with 0 coefficients

     PseudoPot. # 4 for H  read from file:
     ./pseudo/H.pbe-kjpaw_psl.1.0.0.UPF
     MD5 check sum: b3cb3c48ee3b58cc53e4d592112d0ca6
     Pseudo is Projector augmented-wave, Zval =  1.0
     Generated using 'atomic' code by A. Dal Corso  v.7.2
     Shape of augmentation charge: PSQ
     Using radial grid of  929 points,  2 beta functions with:
                l(1) =   0
                l(2) =   0
     Q(r) pseudized with 0 coefficients

     atomic species   valence    mass     pseudopotential
        Mo            14.00    95.95000     Mo( 1.00)
        S              6.00    32.06000     S ( 1.00)
        Pd            18.00   106.42000     Pd( 1.00)
        H              1.00     1.00800     H ( 1.00)

     No symmetry found

   Cartesian axes

     site n.     atom                  positions (alat units)
         1           Mo  tau(   1) = (   0.0000010   0.1443372  -0.7272732  )
         2           Mo  tau(   2) = (   0.1249995   0.0721706  -0.2424038  )
         3           S   tau(   3) = (   0.0000015   0.1443386  -0.3667807  )
         4           S   tau(   4) = (   0.1250010   0.0721682  -0.6030489  )
         5           S   tau(   5) = (   0.1250010   0.0721683  -0.8514963  )
         6           S   tau(   6) = (   0.0000015   0.1443389  -0.1180260  )
         7           Mo  tau(   7) = (   0.0000007   0.1443589   0.2424205  )
         8           Mo  tau(   8) = (   0.1250041   0.0720322   0.7266168  )
         9           S   tau(   9) = (   0.0000742   0.1444871   0.6020949  )
        10           S   tau(  10) = (   0.1250024   0.0721701   0.3667478  )
        11           S   tau(  11) = (   0.1250035   0.0721876   0.1180348  )
        12           S   tau(  12) = (  -0.0004118   0.1430864   0.8514340  )
        13           Mo  tau(  13) = (  -0.1249989   0.3608437  -0.7272732  )
        14           Mo  tau(  14) = (   0.0000030   0.2886752  -0.2424042  )
        15           S   tau(  15) = (  -0.1249977   0.3608450  -0.3667802  )
        16           S   tau(  16) = (   0.0000012   0.2886747  -0.6030489  )
        17           S   tau(  17) = (   0.0000012   0.2886748  -0.8514963  )
        18           S   tau(  18) = (  -0.1249977   0.3608454  -0.1180274  )
        19           Mo  tau(  19) = (  -0.1249729   0.3608584   0.2424608  )
        20           Mo  tau(  20) = (  -0.0007193   0.2876626   0.7275440  )
        21           S   tau(  21) = (  -0.1251115   0.3607789   0.6027257  )
        22           S   tau(  22) = (   0.0000621   0.2887099   0.3668377  )
        23           S   tau(  23) = (  -0.0000096   0.2886902   0.1180527  )
        24           S   tau(  24) = (  -0.1254673   0.3605734   0.8517408  )
        25           Mo  tau(  25) = (  -0.2499987   0.5773502  -0.7272732  )
        26           Mo  tau(  26) = (  -0.1249977   0.5051839  -0.2424055  )
        27           S   tau(  27) = (  -0.2499981   0.5773518  -0.3667809  )
        28           S   tau(  28) = (  -0.1249986   0.5051812  -0.6030489  )
        29           S   tau(  29) = (  -0.1249986   0.5051813  -0.8514963  )
        30           S   tau(  30) = (  -0.2499979   0.5773512  -0.1180266  )
        31           Mo  tau(  31) = (  -0.2499795   0.5773389   0.2424205  )
        32           Mo  tau(  32) = (  -0.1262356   0.5050639   0.7275441  )
        33           S   tau(  33) = (  -0.2498323   0.5773390   0.6020948  )
        34           S   tau(  34) = (  -0.1249376   0.5052159   0.3668377  )
        35           S   tau(  35) = (  -0.1249905   0.5051638   0.1180531  )
        36           S   tau(  36) = (  -0.2512883   0.5776183   0.8514340  )
        37           Mo  tau(  37) = (  -0.3749985   0.7938567  -0.7272732  )
        38           Mo  tau(  38) = (  -0.2500001   0.7216874  -0.2424031  )
        39           S   tau(  39) = (  -0.3749980   0.7938584  -0.3667800  )
        40           S   tau(  40) = (  -0.2499984   0.7216877  -0.6030489  )
        41           S   tau(  41) = (  -0.2499984   0.7216878  -0.8514963  )
        42           S   tau(  42) = (  -0.3749982   0.7938585  -0.1180264  )
        43           Mo  tau(  43) = (  -0.3749962   0.7938568   0.2423838  )
        44           Mo  tau(  44) = (  -0.2501148   0.7217588   0.7266170  )
        45           S   tau(  45) = (  -0.3749945   0.7938590   0.6021274  )
        46           S   tau(  46) = (  -0.2499958   0.7216877   0.3667488  )
        47           S   tau(  47) = (  -0.2499810   0.7216794   0.1180323  )
        48           S   tau(  48) = (  -0.3749953   0.7938585   0.8511588  )
        49           Mo  tau(  49) = (   0.2500010   0.1443372  -0.7272732  )
        50           Mo  tau(  50) = (   0.3750034   0.0721723  -0.2424032  )
        51           S   tau(  51) = (   0.2500017   0.1443391  -0.3667788  )
        52           S   tau(  52) = (   0.3750010   0.0721682  -0.6030489  )
        53           S   tau(  53) = (   0.3750010   0.0721683  -0.8514963  )
        54           S   tau(  54) = (   0.2500016   0.1443391  -0.1180271  )
        55           Mo  tau(  55) = (   0.2500054   0.1443594   0.2424211  )
        56           Mo  tau(  56) = (   0.3749279   0.0721263   0.7263991  )
        57           S   tau(  57) = (   0.2499344   0.1444864   0.6020948  )
        58           S   tau(  58) = (   0.3750316   0.0721860   0.3667597  )
        59           S   tau(  59) = (   0.3749924   0.0721644   0.1180346  )
        60           S   tau(  60) = (   0.2504199   0.1430865   0.8514340  )
[...]
       180           S   tau( 180) = (   0.5012979   0.5776190   0.8514332  )
       181           Mo  tau( 181) = (   0.3750016   0.7938567  -0.7272732  )
       182           Mo  tau( 182) = (   0.5000025   0.7216901  -0.2424039  )
       183           S   tau( 183) = (   0.3750019   0.7938578  -0.3667793  )
       184           S   tau( 184) = (   0.5000016   0.7216877  -0.6030489  )
       185           S   tau( 185) = (   0.5000016   0.7216878  -0.8514963  )
       186           S   tau( 186) = (   0.3750020   0.7938579  -0.1180272  )
       187           Mo  tau( 187) = (   0.3749848   0.7938487   0.2424206  )
       188           Mo  tau( 188) = (   0.5001249   0.7217591   0.7266160  )
       189           S   tau( 189) = (   0.3749125   0.7937251   0.6020942  )
       190           S   tau( 190) = (   0.5000021   0.7216868   0.3667472  )
       191           S   tau( 191) = (   0.4999874   0.7216780   0.1180346  )
       192           S   tau( 192) = (   0.3758826   0.7948451   0.8514332  )
       193           Pd  tau( 193) = (   0.1250063   0.5051842   0.9601361  )
       194           H   tau( 194) = (   0.1913929   0.4668798   1.0620423  )

     DFT-D3 Dispersion Correction (3-body terms):
       Reference C6 values for interpolation:

         atom   Coordination number   C6
         H          0.912             6.05
         H          0.000            15.18
         S          0.000           268.01
[...]
     atom   15 type  2   force =     0.00000000    0.00000000    0.00000000
     atom   16 type  2   force =     0.00000000    0.00000000    0.00000000
     atom   17 type  2   force =     0.00000000    0.00000000    0.00000000
     atom   18 type  2   force =     0.00000000    0.00000000    0.00000000
     atom   19 type  1   force =     0.00000104    0.00000720   -0.00001543
     atom   20 type  1   force =     0.00004847    0.00001526   -0.00004288
     atom   21 type  2   force =     0.00000379   -0.00000121   -0.00002366
     atom   22 type  2   force =    -0.00000378   -0.00000288   -0.00000487
     atom   23 type  2   force =    -0.00000088    0.00000233   -0.00000359
     atom   24 type  2   force =     0.00001216    0.00001508    0.00000464
     atom   25 type  1   force =     0.00000000    0.00000000    0.00000000
     atom   26 type  1   force =     0.00000000    0.00000000    0.00000000
     atom   27 type  2   force =     0.00000000    0.00000000    0.00000000
     atom   28 type  2   force =     0.00000000    0.00000000    0.00000000
     atom   29 type  2   force =     0.00000000    0.00000000    0.00000000
     atom   30 type  2   force =     0.00000000    0.00000000    0.00000000
     atom   31 type  1   force =     0.00001071    0.00000699   -0.00002410
     atom   32 type  1   force =     0.00002424   -0.00000421   -0.00004608
     atom   33 type  2   force =    -0.00000045   -0.00000111   -0.00002709
     atom   34 type  2   force =    -0.00000187   -0.00000260   -0.00001599
     atom   35 type  2   force =     0.00000010    0.00000457   -0.00000091
     atom   36 type  2   force =     0.00001057   -0.00000364    0.00000665
     atom   37 type  1   force =     0.00000000    0.00000000    0.00000000
     atom   38 type  1   force =     0.00000000    0.00000000    0.00000000
     atom   39 type  2   force =     0.00000000    0.00000000    0.00000000
     atom   40 type  2   force =     0.00000000    0.00000000    0.00000000
     atom   41 type  2   force =     0.00000000    0.00000000    0.00000000
     atom   42 type  2   force =     0.00000000    0.00000000    0.00000000
     atom   43 type  1   force =     0.00000696   -0.00000450   -0.00002132
     atom   44 type  1   force =     0.00002901   -0.00001773   -0.00006562
     atom   45 type  2   force =    -0.00000201    0.00000054   -0.00003061
     atom   46 type  2   force =     0.00000050   -0.00000023   -0.00001363
     atom   47 type  2   force =     0.00000297   -0.00000164   -0.00000137
     atom   48 type  2   force =     0.00000276   -0.00000215    0.00001068
     atom   49 type  1   force =     0.00000000    0.00000000    0.00000000
     atom   50 type  1   force =     0.00000000    0.00000000    0.00000000
     atom   51 type  2   force =     0.00000000    0.00000000    0.00000000
     atom   52 type  2   force =     0.00000000    0.00000000    0.00000000
     atom   53 type  2   force =     0.00000000    0.00000000    0.00000000
     atom   54 type  2   force =     0.00000000    0.00000000    0.00000000
     atom   55 type  1   force =     0.00000103   -0.00001202   -0.00001980
     atom   56 type  1   force =     0.00000545    0.00002231   -0.00004791
     atom   57 type  2   force =    -0.00000044    0.00000873   -0.00001866
     atom   58 type  2   force =     0.00000105   -0.00000239   -0.00000741
     atom   59 type  2   force =     0.00000078   -0.00000808   -0.00000457
     atom   60 type  2   force =     0.00000027    0.00001275    0.00000160
[...]
     atom  180 type  2   force =    -0.00001120   -0.00000687    0.00000034
     atom  181 type  1   force =     0.00000000    0.00000000    0.00000000
     atom  182 type  1   force =     0.00000000    0.00000000    0.00000000
     atom  183 type  2   force =     0.00000000    0.00000000    0.00000000
     atom  184 type  2   force =     0.00000000    0.00000000    0.00000000
     atom  185 type  2   force =     0.00000000    0.00000000    0.00000000
     atom  186 type  2   force =     0.00000000    0.00000000    0.00000000
     atom  187 type  1   force =     0.00000240    0.00000017   -0.00000994
     atom  188 type  1   force =    -0.00001341   -0.00002661   -0.00003508
     atom  189 type  2   force =    -0.00000297   -0.00000312   -0.00002609
     atom  190 type  2   force =     0.00000032    0.00000111   -0.00000571
     atom  191 type  2   force =     0.00000373    0.00000104   -0.00000438
     atom  192 type  2   force =    -0.00000659   -0.00001751    0.00000716
     atom  193 type  3   force =    -0.00006357    0.00003555   -0.00006897
     atom  194 type  4   force =     0.00000208   -0.00000123    0.00000075

     DFT-D3 dispersion contribution to forces:
     atom    1 type  1   force =     0.00000001    0.00000004    0.00255975
     atom    2 type  1   force =     0.00000002    0.00000007    0.00001543
     atom    3 type  2   force =     0.00000001   -0.00000001   -0.00003303
     atom    4 type  2   force =    -0.00000001   -0.00000001    0.00017154
     atom    5 type  2   force =     0.00000000   -0.00000002    0.00441516
     atom    6 type  2   force =     0.00000012    0.00000015    0.00009801
     atom    7 type  1   force =    -0.00000568   -0.00000711   -0.00000160
     atom    8 type  1   force =     0.00000112    0.00009634   -0.00246035
     atom    9 type  2   force =    -0.00000150    0.00000381   -0.00013108
     atom   10 type  2   force =    -0.00000404   -0.00001473    0.00003542
     atom   11 type  2   force =     0.00000001   -0.00000030   -0.00009565
     atom   12 type  2   force =     0.00010404    0.00027924   -0.00429901
     atom   13 type  1   force =     0.00000003    0.00000001    0.00255980
     atom   14 type  1   force =     0.00000013    0.00000021    0.00001564
     atom   15 type  2   force =     0.00000002   -0.00000000   -0.00003297
     atom   16 type  2   force =     0.00000001    0.00000000    0.00017157
     atom   17 type  2   force =    -0.00000000    0.00000001    0.00441506
     atom   18 type  2   force =     0.00000036    0.00000022    0.00009811
     atom   19 type  1   force =    -0.00001015   -0.00000812   -0.00001179
     atom   20 type  1   force =     0.00017914    0.00030161   -0.00213683
     atom   21 type  2   force =     0.00002619    0.00000402   -0.00008884
     atom   22 type  2   force =    -0.00000680   -0.00001704    0.00003748
     atom   23 type  2   force =     0.00000032   -0.00000012   -0.00009784
     atom   24 type  2   force =     0.00049118    0.00027928   -0.00416586
     atom   25 type  1   force =     0.00000003   -0.00000002    0.00255975
     atom   26 type  1   force =     0.00000024    0.00000006    0.00001571
     atom   27 type  2   force =     0.00000001    0.00000001   -0.00003302
     atom   28 type  2   force =     0.00000001   -0.00000000    0.00017156
     atom   29 type  2   force =     0.00000001   -0.00000002    0.00441508
     atom   30 type  2   force =     0.00000017   -0.00000001    0.00009806
     atom   31 type  1   force =    -0.00000756   -0.00000127   -0.00000855
     atom   32 type  1   force =     0.00035417   -0.00001312   -0.00216169
     atom   33 type  2   force =     0.00000007    0.00000509   -0.00013396
     atom   34 type  2   force =    -0.00001378    0.00000134    0.00003566
     atom   35 type  2   force =     0.00000016    0.00000051   -0.00009857
     atom   36 type  2   force =     0.00026395   -0.00004995   -0.00431636
     atom   37 type  1   force =    -0.00000001   -0.00000000    0.00255979
     atom   38 type  1   force =     0.00000007   -0.00000002    0.00001553
     atom   39 type  2   force =     0.00000000    0.00000002   -0.00003300
     atom   40 type  2   force =    -0.00000001   -0.00000000    0.00017154
     atom   41 type  2   force =    -0.00000002    0.00000001    0.00441517
     atom   42 type  2   force =     0.00000005    0.00000000    0.00009804
     atom   43 type  1   force =    -0.00000249    0.00000143    0.00000278
     atom   44 type  1   force =     0.00007107   -0.00004103   -0.00247110
     atom   45 type  2   force =    -0.00000594    0.00000342   -0.00016004
     atom   46 type  2   force =    -0.00001349    0.00000779    0.00003221
     atom   47 type  2   force =    -0.00000023    0.00000013   -0.00009627
     atom   48 type  2   force =     0.00000145   -0.00000084   -0.00440546
     atom   49 type  1   force =    -0.00000000    0.00000005    0.00255974
     atom   50 type  1   force =     0.00000002   -0.00000000    0.00001550
     atom   51 type  2   force =    -0.00000002   -0.00000002   -0.00003301
     atom   52 type  2   force =     0.00000001    0.00000001    0.00017157
     atom   53 type  2   force =     0.00000000    0.00000001    0.00441515
     atom   54 type  2   force =    -0.00000003    0.00000015    0.00009806
     atom   55 type  1   force =     0.00000227   -0.00000649   -0.00000740
     atom   56 type  1   force =    -0.00000693    0.00000150   -0.00248301
     atom   57 type  2   force =    -0.00000956   -0.00000497   -0.00013337
     atom   58 type  2   force =     0.00000159   -0.00000086    0.00004073
     atom   59 type  2   force =    -0.00000042   -0.00000029   -0.00009561
     atom   60 type  2   force =    -0.00009886    0.00031650   -0.00429025
[...]
     atom  180 type  2   force =    -0.00032356   -0.00007264   -0.00429023
     atom  181 type  1   force =    -0.00000003   -0.00000003    0.00255976
     atom  182 type  1   force =    -0.00000008   -0.00000005    0.00001543
     atom  183 type  2   force =    -0.00000002   -0.00000001   -0.00003302
     atom  184 type  2   force =     0.00000001    0.00000000    0.00017156
     atom  185 type  2   force =     0.00000002    0.00000001    0.00441516
     atom  186 type  2   force =    -0.00000011   -0.00000018    0.00009799
     atom  187 type  1   force =     0.00000331    0.00000847   -0.00000160
     atom  188 type  1   force =    -0.00008288   -0.00004915   -0.00246034
     atom  189 type  2   force =    -0.00000406   -0.00000063   -0.00013108
     atom  190 type  2   force =     0.00001073    0.00001086    0.00003541
     atom  191 type  2   force =     0.00000026    0.00000014   -0.00009565
     atom  192 type  2   force =    -0.00018983   -0.00022974   -0.00429899
     atom  193 type  3   force =    -0.00005444    0.00003142   -0.00639202
     atom  194 type  4   force =     0.00005732   -0.00003310   -0.00090978

     Total force =     0.001689     Total SCF correction =     0.000278
     SCF correction compared to forces is large: reduce conv_thr to get better values
     Energy error            =      5.5E-06 Ry
     Gradient error          =      7.2E-04 Ry/Bohr

     bfgs converged in  16 scf cycles and  15 bfgs steps
     (criteria: energy <  1.0E-04 Ry, force <  1.0E-03 Ry/Bohr)

     End of BFGS Geometry Optimization

     Final energy             =  -32306.7870144306 Ry

     File ./outdir/pwscf.bfgs deleted, as requested
Begin final coordinates

ATOMIC_POSITIONS (angstrom)
Mo            0.0000119917        1.8193638619       -9.1672481230    0   0   0
Mo            1.5756136568        0.9097075315       -3.0554901653    0   0   0
S             0.0000188998        1.8193822938       -4.6232556019    0   0   0
S             1.5756321638        0.9096773839       -7.6014065489    0   0   0
S             1.5756326175        0.9096785128      -10.7330757790    0   0   0
S             0.0000189190        1.8193860094       -1.4877129945    0   0   0
Mo            0.0000856401        1.8195044784        3.0555316202
Mo            1.5750866791        0.9090336091        9.1566292413
S             0.0005349205        1.8196920075        7.5845095255
S             1.5758151587        0.9097880191        4.6229024928
S             1.5756223660        0.9097618159        1.4877083510
S            -0.0061624542        1.8054405333       10.7270132952
Mo           -1.5756053507        4.5484193819       -9.1672481230    0   0   0
Mo            0.0000378379        3.6387394919       -3.0554952701    0   0   0
S            -1.5755913433        4.5484363582       -4.6232494962    0   0   0
S             0.0000148214        3.6387329039       -7.6014065489    0   0   0
S             0.0000152751        3.6387340328      -10.7330757790    0   0   0
S            -1.5755906502        4.5484413613       -1.4877305502    0   0   0
Mo           -1.5754345845        4.5485873827        3.0557449215
Mo           -0.0133261441        3.6278794548        9.1592714297
S            -1.5785719555        4.5513397021        7.5911355718
S             0.0004950346        3.6391561061        4.6236515891
S            -0.0000907728        3.6387692210        1.4877948350
S            -1.5835256430        4.5395370296       10.7333774828
Mo           -3.1512226931        7.2774749019       -9.1672481230    0   0   0
Mo           -1.5755910988        6.3678216792       -3.0555115988    0   0   0
S            -3.1512162438        7.2774954350       -4.6232578178    0   0   0
S            -1.5756025210        6.3677884239       -7.6014065489    0   0   0
S            -1.5756020673        6.3677895528      -10.7330757790    0   0   0
S            -3.1512127704        7.2774877076       -1.4877200710    0   0   0
Mo           -3.1511328055        7.2774398627        3.0553524435
Mo           -1.5840986285        6.3617182856        9.1712196535
S            -3.1480842556        7.2751525943        7.5927932330
S            -1.5749673910        6.3682927914        4.6232280609
S            -1.5756915636        6.3676045708        1.4875335431
S            -3.1648948820        7.2784577773       10.7315945583
Mo           -4.7268400355       10.0065304219       -9.1672481230    0   0   0
Mo           -3.1512405618        9.0968403586       -3.0554816746    0   0   0
S            -4.7268341792       10.0065523623       -4.6232463762    0   0   0
S            -3.1512198634        9.0968439439       -7.6014065489    0   0   0
S            -3.1512194097        9.0968450728      -10.7330757790    0   0   0
S            -4.7268370797       10.0065537885       -1.4877176751    0   0   0
Mo           -4.7267924533       10.0065302256        3.0553850613
Mo           -3.1508416270        9.0966774899        9.1592978814
S            -4.7247243349       10.0053632220        7.5889611954
S            -3.1510231426        9.0967591877        4.6228939068
S            -3.1511871471        9.0968541028        1.4876497894
S            -4.7271799340       10.0067768688       10.7260004606
Mo            3.1512517547        1.8193638619       -9.1672481230    0   0   0
Mo            4.7269020221        0.9097289540       -3.0554823951    0   0   0
S             3.1512612351        1.8193882564       -4.6232320683    0   0   0
S             4.7268719268        0.9096773839       -7.6014065489    0   0   0
S             4.7268723805        0.9096785128      -10.7330757790    0   0   0
S             3.1512592485        1.8193890201       -1.4877261251    0   0   0
Mo            3.1512114389        1.8195815096        3.0553499441
Mo            4.7256316931        0.9112510965        9.1581172389
S             3.1510658848        1.8260284790        7.5920045231
S             4.7267911822        0.9097823770        4.6229803339
S             4.7268551940        0.9097773431        1.4876440908
S             3.1520347761        1.8030150320       10.7345988540
[...]
S             6.3170945851        7.2850483304       10.7345930416
Mo            4.7268792535       10.0065304219       -9.1672481230    0   0   0
Mo            6.3025111524        9.0968738021       -3.0554915260    0   0   0
S             4.7268840634       10.0065452125       -4.6232380477    0   0   0
S             6.3024994256        9.0968439439       -7.6014065489    0   0   0
S             6.3024998793        9.0968450728      -10.7330757790    0   0   0
S             4.7268847312       10.0065459141       -1.4877283294    0   0   0
Mo            4.7268213608       10.0064380218        3.0555318066
Mo            6.3028318541        9.0977163087        9.1566243514
S             4.7269075523       10.0059981236        7.5845035306
S             6.3025211708        9.0966703769        4.6229040708
S             6.3024468623        9.0968514022        1.4877064774
S             4.7358977339       10.0189187948       10.7270075715
Pd            1.6278936647        6.3377316528       12.1956345386
H             2.4483495989        5.8641869124       13.4723776244
End final coordinates

     Writing all to output data dir ./outdir/pwscf.save/

     General routines

     Parallel routines

   This run was terminated on:   5:22:10   3Sep2023

   JOB DONE.
Application 11120374 resources: utime ~4831166s, stime ~51508s, Rss ~3499784, inblocks ~0, outblocks ~55783888