     Program PWSCF v.7.2 starts on 18Dec2023 at 14:25:24

     Waiting for input...
     Reading input from standard input
Warning: card &CELL ignored
Warning: card / ignored

     Current dimensions of program PWSCF are:
     Max number of different atomic species (ntypx) = 10
     Max number of k-points (npk) =  40000
     Max angular momentum in pseudopotentials (lmaxx) =  4
     file Mo.pbe-spn-kjpaw_psl.1.0.0.UPF: wavefunction(s)  4S 4D renormalized
     file S.pbe-n-kjpaw_psl.1.0.0.UPF: wavefunction(s)  3S 3P renormalized
     file Pt.pbe-spfn-kjpaw_psl.1.0.0.UPF: wavefunction(s)  5P 4F renormalized
     file H.pbe-kjpaw_psl.1.0.0.UPF: wavefunction(s)  1S renormalized

     R & G space division:  proc/nbgrp/npool/nimage =      36
     Subspace diagonalization in iterative solution of the eigenvalue problem:
     one sub-group per band group will be used

     Using Slab Decomposition

     bravais-lattice index     =            0
     lattice parameter (alat)  =      23.8199  a.u.
     unit-cell volume          =   33861.0370 (a.u.)^3
     number of atoms/cell      =          194
     number of atomic types    =            4
     number of electrons       =      1697.00
     number of Kohn-Sham states=         1019
     kinetic-energy cutoff     =      77.0000  Ry
     charge density cutoff     =     539.0000  Ry
     scf convergence threshold =      1.0E-06
     mixing beta               =       0.2000
     number of iterations used =            8  plain     mixing
     energy convergence thresh.=      1.0E-04
     force convergence thresh. =      1.0E-03
     Exchange-correlation= SLA  PW   PBX  PBC
                           (   1   4   3   4   0   0   0)
     nstep                     =         1000

     Effective Screening Medium Method
     Boundary Conditions: Vacuum-Slab-Vacuum
     total charge in unit cell        =   0.0000
     grid points for fit at edges     =        4

     celldm(1)=  23.819920  celldm(2)=   0.000000  celldm(3)=   0.000000
     celldm(4)=   0.000000  celldm(5)=   0.000000  celldm(6)=   0.000000

     crystal axes: (cart. coord. in units of alat)
               a(1) = (   1.000000   0.000000   0.000000 )
               a(2) = (  -0.499999   0.866026   0.000000 )
               a(3) = (   0.000000   0.000000   2.893000 )

     reciprocal axes: (cart. coord. in units 2 pi/alat)
               b(1) = (  1.000000  0.577349  0.000000 )
               b(2) = (  0.000000  1.154700  0.000000 )
               b(3) = (  0.000000  0.000000  0.345662 )

     PseudoPot. # 1 for Mo read from file:
     ./pseudo/Mo.pbe-spn-kjpaw_psl.1.0.0.UPF
     MD5 check sum: 317bf72632116215fd98f72de1686f13
     Pseudo is Projector augmented-wave + core cor, Zval = 14.0
     Generated using 'atomic' code by A. Dal Corso  v.7.2
     Shape of augmentation charge: PSQ
     Using radial grid of 1229 points,  6 beta functions with:
                l(1) =   0
                l(2) =   0
                l(3) =   1
                l(4) =   1
                l(5) =   2
                l(6) =   2
     Q(r) pseudized with 0 coefficients

     PseudoPot. # 2 for S  read from file:
     ./pseudo/S.pbe-n-kjpaw_psl.1.0.0.UPF
     MD5 check sum: 8b7b5302570d38d5e87fed6a1065abda
     Pseudo is Projector augmented-wave + core cor, Zval =  6.0
     Generated using 'atomic' code by A. Dal Corso  v.7.2
     Shape of augmentation charge: PSQ
     Using radial grid of 1151 points,  6 beta functions with:
                l(1) =   0
                l(2) =   0
                l(3) =   1
                l(4) =   1
                l(5) =   2
                l(6) =   2
     Q(r) pseudized with 0 coefficients

     PseudoPot. # 3 for Pt read from file:
     ./pseudo/Pt.pbe-spfn-kjpaw_psl.1.0.0.UPF
     MD5 check sum: 620096ebf4e6ebacc94de60fd67efcb5
     Pseudo is Projector augmented-wave + core cor, Zval = 32.0
     Generated using 'atomic' code by A. Dal Corso  v.7.2
     Shape of augmentation charge: PSQ
     Using radial grid of 1277 points,  8 beta functions with:
                l(1) =   0
                l(2) =   0
                l(3) =   1
                l(4) =   1
                l(5) =   2
                l(6) =   2
                l(7) =   3
                l(8) =   3
     Q(r) pseudized with 0 coefficients

     PseudoPot. # 4 for H  read from file:
     ./pseudo/H.pbe-kjpaw_psl.1.0.0.UPF
     MD5 check sum: b3cb3c48ee3b58cc53e4d592112d0ca6
     Pseudo is Projector augmented-wave, Zval =  1.0
     Generated using 'atomic' code by A. Dal Corso  v.7.2
     Shape of augmentation charge: PSQ
     Using radial grid of  929 points,  2 beta functions with:
                l(1) =   0
                l(2) =   0
     Q(r) pseudized with 0 coefficients

     atomic species   valence    mass     pseudopotential
        Mo            14.00    95.95000     Mo( 1.00)
        S              6.00    32.06000     S ( 1.00)
        Pt            32.00   195.08400     Pt( 1.00)
        H              1.00     1.00800     H ( 1.00)

     No symmetry found

   Cartesian axes

     site n.     atom                  positions (alat units)
         1           Mo  tau(   1) = (   0.0000010   0.1443372  -0.7272732  )
         2           Mo  tau(   2) = (   0.1249995   0.0721706  -0.2424038  )
         3           S   tau(   3) = (   0.0000015   0.1443386  -0.3667807  )
         4           S   tau(   4) = (   0.1250010   0.0721682  -0.6030489  )
         5           S   tau(   5) = (   0.1250010   0.0721683  -0.8514963  )
         6           S   tau(   6) = (   0.0000015   0.1443389  -0.1180260  )
         7           Mo  tau(   7) = (   0.0000014   0.1443616   0.2424356  )
         8           Mo  tau(   8) = (   0.1250042   0.0720311   0.7263989  )
         9           S   tau(   9) = (   0.0000639   0.1447004   0.6020022  )
        10           S   tau(  10) = (   0.1250030   0.0721650   0.3667578  )
        11           S   tau(  11) = (   0.1250031   0.0721991   0.1180453  )
        12           S   tau(  12) = (  -0.0005532   0.1426765   0.8513101  )
        13           Mo  tau(  13) = (  -0.1249989   0.3608437  -0.7272732  )
        14           Mo  tau(  14) = (   0.0000030   0.2886752  -0.2424042  )
        15           S   tau(  15) = (  -0.1249977   0.3608450  -0.3667802  )
        16           S   tau(  16) = (   0.0000012   0.2886747  -0.6030489  )
        17           S   tau(  17) = (   0.0000012   0.2886748  -0.8514963  )
        18           S   tau(  18) = (  -0.1249977   0.3608454  -0.1180274  )
        19           Mo  tau(  19) = (  -0.1249758   0.3608563   0.2424461  )
        20           Mo  tau(  20) = (  -0.0009250   0.2875651   0.7279418  )
        21           S   tau(  21) = (  -0.1248723   0.3609173   0.6030853  )
        22           S   tau(  22) = (   0.0000474   0.2887247   0.3668317  )
        23           S   tau(  23) = (   0.0000000   0.2886879   0.1180554  )
        24           S   tau(  24) = (  -0.1255989   0.3604976   0.8519229  )
        25           Mo  tau(  25) = (  -0.2499987   0.5773502  -0.7272732  )
        26           Mo  tau(  26) = (  -0.1249977   0.5051839  -0.2424055  )
        27           S   tau(  27) = (  -0.2499981   0.5773518  -0.3667809  )
        28           S   tau(  28) = (  -0.1249986   0.5051812  -0.6030489  )
        29           S   tau(  29) = (  -0.1249986   0.5051813  -0.8514963  )
        30           S   tau(  30) = (  -0.2499979   0.5773512  -0.1180266  )
        31           Mo  tau(  31) = (  -0.2499765   0.5773372   0.2424355  )
        32           Mo  tau(  32) = (  -0.1264232   0.5049348   0.7279418  )
        33           S   tau(  33) = (  -0.2496528   0.5772237   0.6020023  )
        34           S   tau(  34) = (  -0.1249318   0.5051954   0.3668318  )
        35           S   tau(  35) = (  -0.1249873   0.5051727   0.1180553  )
        36           S   tau(  36) = (  -0.2517142   0.5777014   0.8513102  )
        37           Mo  tau(  37) = (  -0.3749985   0.7938567  -0.7272732  )
        38           Mo  tau(  38) = (  -0.2500001   0.7216874  -0.2424031  )
        39           S   tau(  39) = (  -0.3749980   0.7938584  -0.3667800  )
        40           S   tau(  40) = (  -0.2499984   0.7216877  -0.6030489  )
        41           S   tau(  41) = (  -0.2499984   0.7216878  -0.8514963  )
        42           S   tau(  42) = (  -0.3749982   0.7938585  -0.1180264  )
        43           Mo  tau(  43) = (  -0.3749961   0.7938572   0.2423820  )
        44           Mo  tau(  44) = (  -0.2501160   0.7217599   0.7263989  )
        45           S   tau(  45) = (  -0.3749948   0.7938592   0.6019084  )
        46           S   tau(  46) = (  -0.2499995   0.7216903   0.3667578  )
        47           S   tau(  47) = (  -0.2499699   0.7216732   0.1180452  )
        48           S   tau(  48) = (  -0.3749951   0.7938590   0.8508262  )
        49           Mo  tau(  49) = (   0.2500010   0.1443372  -0.7272732  )
        50           Mo  tau(  50) = (   0.3750034   0.0721723  -0.2424032  )
        51           S   tau(  51) = (   0.2500017   0.1443391  -0.3667788  )
        52           S   tau(  52) = (   0.3750010   0.0721682  -0.6030489  )
        53           S   tau(  53) = (   0.3750010   0.0721683  -0.8514963  )
        54           S   tau(  54) = (   0.2500016   0.1443391  -0.1180271  )
        55           Mo  tau(  55) = (   0.2500050   0.1443618   0.2424356  )
        56           Mo  tau(  56) = (   0.3749291   0.0721273   0.7261578  )
        57           S   tau(  57) = (   0.2499446   0.1447002   0.6020022  )
        58           S   tau(  58) = (   0.3750312   0.0721852   0.3667808  )
        59           S   tau(  59) = (   0.3749943   0.0721639   0.1180502  )
        60           S   tau(  60) = (   0.2505615   0.1426764   0.8513103  )
[...]
       180           S   tau( 180) = (   0.5017240   0.5777016   0.8513099  )
       181           Mo  tau( 181) = (   0.3750016   0.7938567  -0.7272732  )
       182           Mo  tau( 182) = (   0.5000025   0.7216901  -0.2424039  )
       183           S   tau( 183) = (   0.3750019   0.7938578  -0.3667793  )
       184           S   tau( 184) = (   0.5000016   0.7216877  -0.6030489  )
       185           S   tau( 185) = (   0.5000016   0.7216878  -0.8514963  )
       186           S   tau( 186) = (   0.3750020   0.7938579  -0.1180272  )
       187           Mo  tau( 187) = (   0.3749825   0.7938468   0.2424356  )
       188           Mo  tau( 188) = (   0.5001261   0.7217601   0.7263985  )
       189           S   tau( 189) = (   0.3747228   0.7936274   0.6020018  )
       190           S   tau( 190) = (   0.5000073   0.7216903   0.3667579  )
       191           S   tau( 191) = (   0.4999777   0.7216732   0.1180450  )
       192           S   tau( 192) = (   0.3761670   0.7951734   0.8513099  )
       193           Pt  tau( 193) = (   0.1250041   0.5051825   0.9498857  )
       194           H   tau( 194) = (   0.1250302   0.5050393   1.0767984  )

     DFT-D3 Dispersion Correction (3-body terms):
       Reference C6 values for interpolation:

         atom   Coordination number   C6
         H          0.912             6.05
         H          0.000            15.18
[...]
     atom   15 type  2   force =     0.00000000    0.00000000    0.00000000
     atom   16 type  2   force =     0.00000000    0.00000000    0.00000000
     atom   17 type  2   force =     0.00000000    0.00000000    0.00000000
     atom   18 type  2   force =     0.00000000    0.00000000    0.00000000
     atom   19 type  1   force =     0.00003976    0.00002262    0.00004030
     atom   20 type  1   force =    -0.00004225   -0.00000675   -0.00001034
     atom   21 type  2   force =    -0.00000218   -0.00000174    0.00000294
     atom   22 type  2   force =     0.00000276    0.00000467    0.00000899
     atom   23 type  2   force =     0.00001413    0.00001081    0.00001463
     atom   24 type  2   force =    -0.00000622   -0.00000408   -0.00000314
     atom   25 type  1   force =     0.00000000    0.00000000    0.00000000
     atom   26 type  1   force =     0.00000000    0.00000000    0.00000000
     atom   27 type  2   force =     0.00000000    0.00000000    0.00000000
     atom   28 type  2   force =     0.00000000    0.00000000    0.00000000
     atom   29 type  2   force =     0.00000000    0.00000000    0.00000000
     atom   30 type  2   force =     0.00000000    0.00000000    0.00000000
     atom   31 type  1   force =     0.00001861    0.00001242    0.00006362
     atom   32 type  1   force =    -0.00002569   -0.00003440   -0.00001092
     atom   33 type  2   force =    -0.00000413    0.00000298   -0.00001460
     atom   34 type  2   force =     0.00000579    0.00000006    0.00000900
     atom   35 type  2   force =     0.00001673    0.00000676    0.00001462
     atom   36 type  2   force =    -0.00000607   -0.00000312   -0.00000070
     atom   37 type  1   force =     0.00000000    0.00000000    0.00000000
     atom   38 type  1   force =     0.00000000    0.00000000    0.00000000
     atom   39 type  2   force =     0.00000000    0.00000000    0.00000000
     atom   40 type  2   force =     0.00000000    0.00000000    0.00000000
     atom   41 type  2   force =     0.00000000    0.00000000    0.00000000
     atom   42 type  2   force =     0.00000000    0.00000000    0.00000000
     atom   43 type  1   force =     0.00000032    0.00000050    0.00007255
     atom   44 type  1   force =    -0.00001267    0.00000940   -0.00004499
     atom   45 type  2   force =     0.00000014    0.00000063   -0.00001834
     atom   46 type  2   force =    -0.00000565    0.00000383    0.00001919
     atom   47 type  2   force =     0.00000530   -0.00000276    0.00001173
     atom   48 type  2   force =    -0.00000026    0.00000056   -0.00000125
     atom   49 type  1   force =     0.00000000    0.00000000    0.00000000
     atom   50 type  1   force =     0.00000000    0.00000000    0.00000000
     atom   51 type  2   force =     0.00000000    0.00000000    0.00000000
     atom   52 type  2   force =     0.00000000    0.00000000    0.00000000
     atom   53 type  2   force =     0.00000000    0.00000000    0.00000000
     atom   54 type  2   force =     0.00000000    0.00000000    0.00000000
     atom   55 type  1   force =    -0.00001936    0.00000859    0.00006409
     atom   56 type  1   force =     0.00002145    0.00001117   -0.00002240
     atom   57 type  2   force =     0.00000005   -0.00000608   -0.00001414
     atom   58 type  2   force =    -0.00000818   -0.00000494    0.00002378
     atom   59 type  2   force =    -0.00001354   -0.00000794    0.00000642
     atom   60 type  2   force =     0.00000597   -0.00000449   -0.00000136
[...]
     atom  180 type  2   force =     0.00000631   -0.00000263   -0.00000029
     atom  181 type  1   force =     0.00000000    0.00000000    0.00000000
     atom  182 type  1   force =     0.00000000    0.00000000    0.00000000
     atom  183 type  2   force =     0.00000000    0.00000000    0.00000000
     atom  184 type  2   force =     0.00000000    0.00000000    0.00000000
     atom  185 type  2   force =     0.00000000    0.00000000    0.00000000
     atom  186 type  2   force =     0.00000000    0.00000000    0.00000000
     atom  187 type  1   force =     0.00000157   -0.00002076    0.00006383
     atom  188 type  1   force =     0.00001308    0.00001018   -0.00004349
     atom  189 type  2   force =     0.00000466    0.00000344   -0.00001390
     atom  190 type  2   force =     0.00000599    0.00000387    0.00001904
     atom  191 type  2   force =    -0.00000512   -0.00000266    0.00001137
     atom  192 type  2   force =     0.00000034    0.00000777   -0.00000090
     atom  193 type  3   force =     0.00000202   -0.00000493    0.00060147
     atom  194 type  4   force =     0.00000001    0.00000004    0.00000107

     DFT-D3 dispersion contribution to forces:
     atom    1 type  1   force =     0.00000001    0.00000004    0.00255972
     atom    2 type  1   force =     0.00000000    0.00000005    0.00001451
     atom    3 type  2   force =     0.00000002   -0.00000001   -0.00003316
     atom    4 type  2   force =    -0.00000001   -0.00000001    0.00017154
     atom    5 type  2   force =    -0.00000000   -0.00000002    0.00441508
     atom    6 type  2   force =     0.00000012    0.00000007    0.00009770
     atom    7 type  1   force =    -0.00000323   -0.00000886   -0.00000045
     atom    8 type  1   force =     0.00000000    0.00009658   -0.00245195
     atom    9 type  2   force =     0.00000905   -0.00000448   -0.00012225
     atom   10 type  2   force =    -0.00000000   -0.00001851    0.00004195
     atom   11 type  2   force =    -0.00000000   -0.00000040   -0.00009452
     atom   12 type  2   force =     0.00010854    0.00030942   -0.00430243
     atom   13 type  1   force =     0.00000003    0.00000002    0.00255976
     atom   14 type  1   force =     0.00000014    0.00000014    0.00001464
     atom   15 type  2   force =     0.00000003    0.00000001   -0.00003314
     atom   16 type  2   force =     0.00000001    0.00000000    0.00017156
     atom   17 type  2   force =    -0.00000001    0.00000003    0.00441496
     atom   18 type  2   force =     0.00000034    0.00000018    0.00009774
     atom   19 type  1   force =    -0.00001143   -0.00000661   -0.00001260
     atom   20 type  1   force =     0.00016932    0.00029586   -0.00214986
     atom   21 type  2   force =     0.00003380    0.00001950   -0.00007177
     atom   22 type  2   force =    -0.00000584   -0.00002045    0.00003620
     atom   23 type  2   force =     0.00000053   -0.00000039   -0.00009774
     atom   24 type  2   force =     0.00050848    0.00029353   -0.00414920
     atom   25 type  1   force =     0.00000004   -0.00000002    0.00255971
     atom   26 type  1   force =     0.00000021    0.00000003    0.00001462
     atom   27 type  2   force =     0.00000001    0.00000001   -0.00003318
     atom   28 type  2   force =     0.00000001   -0.00000000    0.00017156
     atom   29 type  2   force =     0.00000002   -0.00000002    0.00441496
     atom   30 type  2   force =     0.00000013    0.00000007    0.00009770
     atom   31 type  1   force =    -0.00000928    0.00000163   -0.00000043
     atom   32 type  1   force =     0.00034092   -0.00000131   -0.00214992
     atom   33 type  2   force =     0.00000063    0.00001009   -0.00012225
     atom   34 type  2   force =    -0.00002062    0.00000518    0.00003620
     atom   35 type  2   force =    -0.00000007    0.00000064   -0.00009773
     atom   36 type  2   force =     0.00032209   -0.00006071   -0.00430248
     atom   37 type  1   force =    -0.00000000   -0.00000000    0.00255976
     atom   38 type  1   force =     0.00000003    0.00000001    0.00001452
     atom   39 type  2   force =     0.00000001    0.00000002   -0.00003314
     atom   40 type  2   force =    -0.00000001    0.00000000    0.00017153
     atom   41 type  2   force =    -0.00000002    0.00000001    0.00441508
     atom   42 type  2   force =     0.00000001    0.00000002    0.00009775
     atom   43 type  1   force =    -0.00000000    0.00000000    0.00001313
     atom   44 type  1   force =     0.00008359   -0.00004827   -0.00245197
     atom   45 type  2   force =    -0.00000000   -0.00000001   -0.00015139
     atom   46 type  2   force =    -0.00001602    0.00000926    0.00004194
     atom   47 type  2   force =    -0.00000036    0.00000021   -0.00009451
     atom   48 type  2   force =     0.00000000   -0.00000001   -0.00441322
     atom   49 type  1   force =    -0.00000001    0.00000005    0.00255971
     atom   50 type  1   force =    -0.00000004   -0.00000001    0.00001446
     atom   51 type  2   force =    -0.00000002   -0.00000002   -0.00003316
     atom   52 type  2   force =     0.00000001    0.00000001    0.00017156
     atom   53 type  2   force =     0.00000000    0.00000000    0.00441507
     atom   54 type  2   force =    -0.00000011    0.00000007    0.00009769
     atom   55 type  1   force =     0.00000323   -0.00000885   -0.00000046
     atom   56 type  1   force =    -0.00001750   -0.00001010   -0.00247239
     atom   57 type  2   force =    -0.00000906   -0.00000448   -0.00012225
     atom   58 type  2   force =    -0.00000240   -0.00000140    0.00004521
     atom   59 type  2   force =    -0.00000068   -0.00000039   -0.00009416
     atom   60 type  2   force =    -0.00010853    0.00030944   -0.00430243
[...]
     atom  180 type  2   force =    -0.00032214   -0.00006072   -0.00430246
     atom  181 type  1   force =    -0.00000004   -0.00000003    0.00255973
     atom  182 type  1   force =    -0.00000008   -0.00000002    0.00001450
     atom  183 type  2   force =    -0.00000002   -0.00000002   -0.00003315
     atom  184 type  2   force =     0.00000001    0.00000001    0.00017155
     atom  185 type  2   force =     0.00000002    0.00000001    0.00441508
     atom  186 type  2   force =    -0.00000004   -0.00000014    0.00009768
     atom  187 type  1   force =     0.00000604    0.00000722   -0.00000044
     atom  188 type  1   force =    -0.00008360   -0.00004828   -0.00245196
     atom  189 type  2   force =     0.00000838   -0.00000560   -0.00012225
     atom  190 type  2   force =     0.00001602    0.00000926    0.00004194
     atom  191 type  2   force =     0.00000034    0.00000021   -0.00009453
     atom  192 type  2   force =    -0.00021358   -0.00024858   -0.00430249
     atom  193 type  3   force =    -0.00000001    0.00000005   -0.00673638
     atom  194 type  4   force =    -0.00000001    0.00000004   -0.00086653

     Total force =     0.002711     Total SCF correction =     0.000679
     SCF correction compared to forces is large: reduce conv_thr to get better values
     Energy error            =      1.5E-05 Ry
     Gradient error          =      9.5E-04 Ry/Bohr

     bfgs converged in  11 scf cycles and  10 bfgs steps
     (criteria: energy <  1.0E-04 Ry, force <  1.0E-03 Ry/Bohr)

     End of BFGS Geometry Optimization

     Final energy             =  -33469.5267673857 Ry

     File ./outdir/pwscf.bfgs deleted, as requested
Begin final coordinates

ATOMIC_POSITIONS (angstrom)
Mo            0.0000119917        1.8193638619       -9.1672481230    0   0   0
Mo            1.5756136568        0.9097075315       -3.0554901653    0   0   0
S             0.0000188998        1.8193822938       -4.6232556019    0   0   0
S             1.5756321638        0.9096773839       -7.6014065489    0   0   0
S             1.5756326175        0.9096785128      -10.7330757790    0   0   0
S             0.0000189190        1.8193860094       -1.4877129945    0   0   0
Mo            0.0000426559        1.8194717387        3.0557556179
Mo            1.5756719317        0.9068728515        9.1549987470
S            -0.0002714956        1.8198275560        7.5878606470
S             1.5756597443        0.9099188207        4.6231389803
S             1.5756583990        0.9097432274        1.4881764125
S            -0.0021067317        1.8006172967       10.7313475904
Mo           -1.5756053507        4.5484193819       -9.1672481230    0   0   0
Mo            0.0000378379        3.6387394919       -3.0554952701    0   0   0
S            -1.5755913433        4.5484363582       -4.6232494962    0   0   0
S             0.0000148214        3.6387329039       -7.6014065489    0   0   0
S             0.0000152751        3.6387340328      -10.7330757790    0   0   0
S            -1.5755906502        4.5484413613       -1.4877305502    0   0   0
Mo           -1.5753411300        4.5485635092        3.0562535282
Mo           -0.0061364495        3.6244800787        9.1674791929
S            -1.5750661257        4.5487412090        7.5968896717
S             0.0005969748        3.6389591265        4.6238992293
S            -0.0001045536        3.6388153551        1.4882102803
S            -1.5820815736        4.5446941997       10.7316201598
Mo           -3.1512226931        7.2774749019       -9.1672481230    0   0   0
Mo           -1.5755910988        6.3678216792       -3.0555115988    0   0   0
S            -3.1512162438        7.2774954350       -4.6232578178    0   0   0
S            -1.5756025210        6.3677884239       -7.6014065489    0   0   0
S            -1.5756020673        6.3677895528      -10.7330757790    0   0   0
S            -3.1512127704        7.2774877076       -1.4877200710    0   0   0
Mo           -3.1511058403        7.2774358338        3.0557558887
Mo           -1.5909936981        6.3696291147        9.1674975805
S            -3.1509530534        7.2769992825        7.5878623669
S            -1.5751079403        6.3681706915        4.6238984468
S            -1.5755835355        6.3676349640        1.4882102265
S            -3.1685121213        7.2850208987       10.7313480244
Mo           -4.7268400355       10.0065304219       -9.1672481230    0   0   0
Mo           -3.1512405618        9.0968403586       -3.0554816746    0   0   0
S            -4.7268341792       10.0065523623       -4.6232463762    0   0   0
S            -3.1512198634        9.0968439439       -7.6014065489    0   0   0
S            -3.1512194097        9.0968450728      -10.7330757790    0   0   0
S            -4.7268370797       10.0065537885       -1.4877176751    0   0   0
Mo           -4.7268098464       10.0065386913        3.0558068622
Mo           -3.1536280514        9.0982902578        9.1549919511
S            -4.7267959903       10.0065577957        7.5849933936
S            -3.1509898089        9.0967373078        4.6231392233
S            -3.1511415333        9.0968244445        1.4881766028
S            -4.7267967681       10.0065520812       10.7247627429
Mo            3.1512517547        1.8193638619       -9.1672481230    0   0   0
Mo            4.7269020221        0.9097289540       -3.0554823951    0   0   0
S             3.1512612351        1.8193882564       -4.6232320683    0   0   0
S             4.7268719268        0.9096773839       -7.6014065489    0   0   0
S             4.7268723805        0.9096785128      -10.7330757790    0   0   0
S             3.1512592485        1.8193890201       -1.4877261251    0   0   0
Mo            3.1512772604        1.8194712454        3.0557546901
Mo            4.7253662396        0.9088137522        9.1552424918
S             3.1516186063        1.8198295618        7.5878670778
S             4.7269405071        0.9097119571        4.6233413823
S             4.7269391443        0.9097096226        1.4881703255
S             3.1534495160        1.8006149010       10.7313515618
[...]
S             6.3198762850        7.2850235215       10.7313482623
Mo            4.7268792535       10.0065304219       -9.1672481230    0   0   0
Mo            6.3025111524        9.0968738021       -3.0554915260    0   0   0
S             4.7268840634       10.0065452125       -4.6232380477    0   0   0
S             6.3024994256        9.0968439439       -7.6014065489    0   0   0
S             6.3024998793        9.0968450728      -10.7330757790    0   0   0
S             4.7268847312       10.0065459141       -1.4877283294    0   0   0
Mo            4.7268248209       10.0064872261        3.0557560869
Mo            6.3049930818        9.0982914773        9.1549905445
S             4.7263894062       10.0066294983        7.5878445144
S             6.3023283933        9.0967365563        4.6231390830
S             6.3024787030        9.0968244291        1.4881758818
S             4.7420918674       10.0178132361       10.7313384008
Pt            1.5757450717        6.3675774769       12.1154318311
H             1.5760075443        6.3659989885       13.7081840811
End final coordinates

     Writing all to output data dir ./outdir/pwscf.save/

     General routines

     Parallel routines

   This run was terminated on:  19:26:23  19Dec2023

   JOB DONE.
Application 11518284 resources: utime ~3711186s, stime ~49094s, Rss ~3561240, inblocks ~0, outblocks ~54203384