     Program PWSCF v.7.3 starts on 14Mar2024 at 18: 3:37

     Waiting for input...
     Reading input from standard input
Warning: card &CELL ignored
Warning: card / ignored

     Current dimensions of program PWSCF are:
     Max number of different atomic species (ntypx) = 10
     Max number of k-points (npk) =  40000
     Max angular momentum in pseudopotentials (lmaxx) =  4
     file Mo.pbe-spn-kjpaw_psl.1.0.0.UPF: wavefunction(s)  4S 4D renormalized
     file S.pbe-n-kjpaw_psl.1.0.0.UPF: wavefunction(s)  3S 3P renormalized
     file Pt.pbe-spfn-kjpaw_psl.1.0.0.UPF: wavefunction(s)  5P 4F renormalized
     file Pd.pbe-spn-kjpaw_psl.1.0.0.UPF: wavefunction(s)  4S 5S 4D renormalized

     R & G space division:  proc/nbgrp/npool/nimage =      36
     Subspace diagonalization in iterative solution of the eigenvalue problem:
     one sub-group per band group will be used

     Using Slab Decomposition

     bravais-lattice index     =            0
     lattice parameter (alat)  =      23.8199  a.u.
     unit-cell volume          =   33861.0370 (a.u.)^3
     number of atoms/cell      =          194
     number of atomic types    =            4
     number of electrons       =      1714.00
     number of Kohn-Sham states=         1028
     kinetic-energy cutoff     =      77.0000  Ry
     charge density cutoff     =     539.0000  Ry
     scf convergence threshold =      1.0E-06
     mixing beta               =       0.2000
     number of iterations used =            8  plain     mixing
     energy convergence thresh.=      1.0E-04
     force convergence thresh. =      1.0E-03
     Exchange-correlation= SLA  PW   PBX  PBC
                           (   1   4   3   4   0   0   0)
     nstep                     =         1000

     Effective Screening Medium Method
     Boundary Conditions: Vacuum-Slab-Vacuum
     total charge in unit cell        =   0.0000
     grid points for fit at edges     =        4

     celldm(1)=  23.819920  celldm(2)=   0.000000  celldm(3)=   0.000000
     celldm(4)=   0.000000  celldm(5)=   0.000000  celldm(6)=   0.000000

     crystal axes: (cart. coord. in units of alat)
               a(1) = (   1.000000   0.000000   0.000000 )
               a(2) = (  -0.499999   0.866026   0.000000 )
               a(3) = (   0.000000   0.000000   2.893000 )

     reciprocal axes: (cart. coord. in units 2 pi/alat)
               b(1) = (  1.000000  0.577349  0.000000 )
               b(2) = (  0.000000  1.154700  0.000000 )
               b(3) = (  0.000000  0.000000  0.345662 )

     PseudoPot. # 1 for Mo read from file:
     ./pseudo/Mo.pbe-spn-kjpaw_psl.1.0.0.UPF
     MD5 check sum: 317bf72632116215fd98f72de1686f13
     Pseudo is Projector augmented-wave + core cor, Zval = 14.0
     Generated using 'atomic' code by A. Dal Corso  v.7.2
     Shape of augmentation charge: PSQ
     Using radial grid of 1229 points,  6 beta functions with:
                l(1) =   0
                l(2) =   0
                l(3) =   1
                l(4) =   1
                l(5) =   2
                l(6) =   2
     Q(r) pseudized with 0 coefficients

     PseudoPot. # 2 for S  read from file:
     ./pseudo/S.pbe-n-kjpaw_psl.1.0.0.UPF
     MD5 check sum: 8b7b5302570d38d5e87fed6a1065abda
     Pseudo is Projector augmented-wave + core cor, Zval =  6.0
     Generated using 'atomic' code by A. Dal Corso  v.7.2
     Shape of augmentation charge: PSQ
     Using radial grid of 1151 points,  6 beta functions with:
                l(1) =   0
                l(2) =   0
                l(3) =   1
                l(4) =   1
                l(5) =   2
                l(6) =   2
     Q(r) pseudized with 0 coefficients

     PseudoPot. # 3 for Pt read from file:
     ./pseudo/Pt.pbe-spfn-kjpaw_psl.1.0.0.UPF
     MD5 check sum: 620096ebf4e6ebacc94de60fd67efcb5
     Pseudo is Projector augmented-wave + core cor, Zval = 32.0
     Generated using 'atomic' code by A. Dal Corso  v.7.2
     Shape of augmentation charge: PSQ
     Using radial grid of 1277 points,  8 beta functions with:
                l(1) =   0
                l(2) =   0
                l(3) =   1
                l(4) =   1
                l(5) =   2
                l(6) =   2
                l(7) =   3
                l(8) =   3
     Q(r) pseudized with 0 coefficients

     PseudoPot. # 4 for Pd read from file:
     ./pseudo/Pd.pbe-spn-kjpaw_psl.1.0.0.UPF
     MD5 check sum: a60571a671f2502b8a6a4569d20a6edb
     Pseudo is Projector augmented-wave + core cor, Zval = 18.0
     Generated using 'atomic' code by A. Dal Corso  v.7.2
     Shape of augmentation charge: PSQ
     Using radial grid of 1235 points,  6 beta functions with:
                l(1) =   0
                l(2) =   0
                l(3) =   1
                l(4) =   1
                l(5) =   2
                l(6) =   2
     Q(r) pseudized with 0 coefficients

     atomic species   valence    mass     pseudopotential
     Mo               14.00    95.95000     Mo( 1.00)
     S                 6.00    32.06000     S ( 1.00)
     Pt               32.00   195.08400     Pt( 1.00)
     Pd               18.00   106.42000     Pd( 1.00)

     No symmetry found

   Cartesian axes

     site n.     atom                  positions (alat units)
         1        Mo     tau(   1) = (   0.0000010   0.1443372  -0.7272732  )
         2        Mo     tau(   2) = (   0.1249995   0.0721706  -0.2424038  )
         3        S      tau(   3) = (   0.0000015   0.1443386  -0.3667807  )
         4        S      tau(   4) = (   0.1250010   0.0721682  -0.6030489  )
         5        S      tau(   5) = (   0.1250010   0.0721683  -0.8514963  )
         6        S      tau(   6) = (   0.0000015   0.1443389  -0.1180260  )
         7        Mo     tau(   7) = (   0.0000014   0.1443616   0.2424356  )
         8        Mo     tau(   8) = (   0.1250042   0.0720311   0.7263989  )
         9        S      tau(   9) = (   0.0000639   0.1447004   0.6020022  )
        10        S      tau(  10) = (   0.1250030   0.0721650   0.3667578  )
        11        S      tau(  11) = (   0.1250031   0.0721991   0.1180453  )
        12        S      tau(  12) = (  -0.0005532   0.1426765   0.8513101  )
        13        Mo     tau(  13) = (  -0.1249989   0.3608437  -0.7272732  )
        14        Mo     tau(  14) = (   0.0000030   0.2886752  -0.2424042  )
        15        S      tau(  15) = (  -0.1249977   0.3608450  -0.3667802  )
        16        S      tau(  16) = (   0.0000012   0.2886747  -0.6030489  )
        17        S      tau(  17) = (   0.0000012   0.2886748  -0.8514963  )
        18        S      tau(  18) = (  -0.1249977   0.3608454  -0.1180274  )
        19        Mo     tau(  19) = (  -0.1249758   0.3608563   0.2424461  )
        20        Mo     tau(  20) = (  -0.0009250   0.2875651   0.7279418  )
        21        S      tau(  21) = (  -0.1248723   0.3609173   0.6030853  )
        22        S      tau(  22) = (   0.0000474   0.2887247   0.3668317  )
        23        S      tau(  23) = (   0.0000000   0.2886879   0.1180554  )
        24        S      tau(  24) = (  -0.1255989   0.3604976   0.8519229  )
        25        Mo     tau(  25) = (  -0.2499987   0.5773502  -0.7272732  )
        26        Mo     tau(  26) = (  -0.1249977   0.5051839  -0.2424055  )
        27        S      tau(  27) = (  -0.2499981   0.5773518  -0.3667809  )
        28        S      tau(  28) = (  -0.1249986   0.5051812  -0.6030489  )
        29        S      tau(  29) = (  -0.1249986   0.5051813  -0.8514963  )
        30        S      tau(  30) = (  -0.2499979   0.5773512  -0.1180266  )
        31        Mo     tau(  31) = (  -0.2499765   0.5773372   0.2424355  )
        32        Mo     tau(  32) = (  -0.1264232   0.5049348   0.7279418  )
        33        S      tau(  33) = (  -0.2496528   0.5772237   0.6020023  )
        34        S      tau(  34) = (  -0.1249318   0.5051954   0.3668318  )
        35        S      tau(  35) = (  -0.1249873   0.5051727   0.1180553  )
        36        S      tau(  36) = (  -0.2517142   0.5777014   0.8513102  )
        37        Mo     tau(  37) = (  -0.3749985   0.7938567  -0.7272732  )
        38        Mo     tau(  38) = (  -0.2500001   0.7216874  -0.2424031  )
        39        S      tau(  39) = (  -0.3749980   0.7938584  -0.3667800  )
        40        S      tau(  40) = (  -0.2499984   0.7216877  -0.6030489  )
        41        S      tau(  41) = (  -0.2499984   0.7216878  -0.8514963  )
        42        S      tau(  42) = (  -0.3749982   0.7938585  -0.1180264  )
        43        Mo     tau(  43) = (  -0.3749961   0.7938572   0.2423820  )
        44        Mo     tau(  44) = (  -0.2501160   0.7217599   0.7263989  )
        45        S      tau(  45) = (  -0.3749948   0.7938592   0.6019084  )
        46        S      tau(  46) = (  -0.2499995   0.7216903   0.3667578  )
        47        S      tau(  47) = (  -0.2499699   0.7216732   0.1180452  )
        48        S      tau(  48) = (  -0.3749951   0.7938590   0.8508262  )
        49        Mo     tau(  49) = (   0.2500010   0.1443372  -0.7272732  )
        50        Mo     tau(  50) = (   0.3750034   0.0721723  -0.2424032  )
        51        S      tau(  51) = (   0.2500017   0.1443391  -0.3667788  )
        52        S      tau(  52) = (   0.3750010   0.0721682  -0.6030489  )
        53        S      tau(  53) = (   0.3750010   0.0721683  -0.8514963  )
        54        S      tau(  54) = (   0.2500016   0.1443391  -0.1180271  )
        55        Mo     tau(  55) = (   0.2500050   0.1443618   0.2424356  )
        56        Mo     tau(  56) = (   0.3749291   0.0721273   0.7261578  )
        57        S      tau(  57) = (   0.2499446   0.1447002   0.6020022  )
        58        S      tau(  58) = (   0.3750312   0.0721852   0.3667808  )
        59        S      tau(  59) = (   0.3749943   0.0721639   0.1180502  )
        60        S      tau(  60) = (   0.2505615   0.1426764   0.8513103  )
[...]
       180        S      tau( 180) = (   0.5017240   0.5777016   0.8513099  )
       181        Mo     tau( 181) = (   0.3750016   0.7938567  -0.7272732  )
       182        Mo     tau( 182) = (   0.5000025   0.7216901  -0.2424039  )
       183        S      tau( 183) = (   0.3750019   0.7938578  -0.3667793  )
       184        S      tau( 184) = (   0.5000016   0.7216877  -0.6030489  )
       185        S      tau( 185) = (   0.5000016   0.7216878  -0.8514963  )
       186        S      tau( 186) = (   0.3750020   0.7938579  -0.1180272  )
       187        Mo     tau( 187) = (   0.3749825   0.7938468   0.2424356  )
       188        Mo     tau( 188) = (   0.5001261   0.7217601   0.7263985  )
       189        S      tau( 189) = (   0.3747228   0.7936274   0.6020018  )
       190        S      tau( 190) = (   0.5000073   0.7216903   0.3667579  )
       191        S      tau( 191) = (   0.4999777   0.7216732   0.1180450  )
       192        S      tau( 192) = (   0.3761670   0.7951734   0.8513099  )
       193        Pt     tau( 193) = (   0.1250041   0.5051825   0.9498857  )
       194        Pd     tau( 194) = (   0.6249921   0.5052773   0.9782658  )

     DFT-D3 Dispersion Correction (3-body terms):
       Reference C6 values for interpolation:

[...]
   -40.5976 -40.5975 -40.5975 -40.5975 -40.5975 -40.5974 -40.5973 -40.5966
   -40.5966 -40.5966 -40.5966 -40.5858 -40.5843 -40.5804 -40.5784 -40.5628
   -40.5628 -40.5628 -40.5628 -40.5627 -40.5627 -40.5627 -40.5627 -40.5619
   -40.5619 -40.5619 -40.5619 -40.5506 -40.5506 -40.5506 -40.5505 -40.5497
   -40.5497 -40.5496 -40.5455 -40.5422 -40.5363 -40.5330 -40.5313 -40.5313
   -40.5313 -40.5312 -40.5304 -40.5304 -40.5250 -40.5147 -40.5143 -40.5143
   -40.5143 -40.5142 -40.5134 -40.5134 -40.5101 -40.4903 -40.4837 -40.4837
   -40.4836 -40.4836 -40.4827 -40.4827 -40.4805 -40.4658 -40.4571 -19.8612
   -19.8341 -19.7864 -19.7769 -19.6863 -19.6794 -19.5817 -19.5792 -19.4110
   -19.4055 -19.3488 -19.3474 -19.2552 -19.2544 -19.1551 -19.1548 -18.8663
   -18.8298 -18.7879 -18.7220 -18.6843 -18.6715 -18.6490 -18.6482 -18.6476
   -18.6374 -18.6242 -18.6132 -18.5788 -18.5771 -18.5655 -18.5624 -18.5271
   -18.5228 -18.4924 -18.4838 -18.4809 -18.4800 -18.4623 -18.4569 -18.4353
   -18.4306 -18.4122 -18.4082 -18.3946 -18.3897 -18.3379 -18.3363 -18.3333
   -18.3306 -18.2983 -18.2824 -18.2606 -18.2555 -18.2454 -18.2251 -18.1910
   -18.1798 -18.1756 -18.1711 -18.1280 -18.1266 -18.1125 -18.1065 -18.0713
   -18.0687 -18.0463 -18.0461 -18.0311 -18.0307 -18.0253 -18.0247 -18.0178
   -18.0160 -17.9995 -17.9984 -17.9957 -17.9944 -17.9858 -17.9855 -17.9768
   -17.9759 -17.9715 -17.9709 -17.9379 -17.9366 -17.9323 -17.9315 -17.9278
   -17.9273 -17.9235 -17.9231 -17.9125 -17.9116 -17.8780 -17.8751 -17.8650
   -17.8644 -17.8582 -17.8572 -17.8211 -17.8199 -17.8119 -17.8102 -17.7862
   -17.7839 -17.7729 -17.7724 -17.7655 -17.7648 -17.7465 -17.7463 -17.7454
   -17.7453 -17.7445 -17.7441 -17.7314 -17.7313 -17.7115 -17.7114 -17.6872
   -17.6871 -17.6677 -17.6676 -17.6534 -17.6533 -17.6462 -17.6462 -11.8889
   -11.7134 -11.6444 -11.6367 -11.5756 -11.4981 -11.4628 -11.4485 -11.4415
   -11.4278 -11.4222 -11.4179 -11.4122 -11.4054 -11.3843 -11.3698 -11.3282
   -11.3143 -11.3087 -11.3039 -11.2772 -11.2691 -11.2531 -11.2483 -11.2351
   -11.2268 -11.2007 -11.1967 -11.1911 -11.1899 -11.1818 -11.1809 -11.1600
   -11.1365 -11.1332 -11.1286 -11.1211 -11.1159 -11.0989 -11.0964 -11.0948
   -11.0934 -11.0744 -11.0738 -11.0508 -11.0487 -11.0152 -11.0032 -10.9999
   -10.9945 -10.9699 -10.9366 -10.9119 -10.8910 -10.8789 -10.8687 -10.8564
   -10.8486 -10.8463 -10.8281 -10.8241 -10.7930 -10.7834 -10.7725 -10.7626
   -10.7616 -10.7535 -10.7492 -10.7384 -10.7379 -10.7375 -10.7366 -10.7319
   -10.7278 -10.7257 -10.7251 -10.7193 -10.7189 -10.7109 -10.7099 -10.7087
[...]
    -3.3070  -3.2818  -3.2768  -3.2740  -3.2726  -3.2688  -3.2679  -3.2612
    -3.2553  -3.2377  -3.2324  -3.2187  -3.2178  -3.2046  -3.2039  -3.2021
    -3.1997  -3.1979  -3.1959  -3.1766  -3.1732  -3.1589  -3.1579  -3.1570
    -3.1455  -3.1410  -3.1374  -3.1362  -3.1349  -3.1193  -3.1147  -3.1055
    -3.1040  -3.0970  -3.0889  -3.0869  -3.0869  -3.0781  -3.0688  -3.0486
    -3.0343  -3.0058  -3.0045  -2.9982  -2.9953  -2.9870  -2.9841  -2.9521
    -2.9506  -2.9485  -2.9476  -2.9472  -2.9462  -2.9391  -2.9376  -2.9334
    -2.9307  -2.9276  -2.9257  -2.9136  -2.9119  -2.9103  -2.9058  -2.9019
    -2.9004  -2.8978  -2.8966  -2.8954  -2.8910  -2.8731  -2.8729  -2.8689
    -2.8676  -2.8568  -2.8560  -2.8476  -2.8403  -2.8298  -2.8224  -2.8213
    -2.8155  -2.8108  -2.8074  -2.7919  -2.7818  -2.7251  -2.7216  -2.7201
    -2.7187  -2.6710  -2.6563  -2.6467  -2.6430  -2.5551  -2.5438  -2.5246
    -2.5239  -2.4972  -2.4890  -2.4832  -2.4708  -2.4670  -2.4565  -2.4551
    -2.4528  -2.4493  -2.4416  -2.3716  -2.3569  -2.3348  -2.3286  -2.3210
    -2.3169  -2.3073  -2.3043  -2.2731

     the Fermi energy is    -4.6453 ev

!    total energy              =  -33980.28229815 Ry
     total all-electron energy =   -667406.135304 Ry
     estimated scf accuracy    <          7.0E-09 Ry
     smearing contrib. (-TS)   =      -0.00000012 Ry
     internal energy E=F+TS    =  -33980.28229804 Ry

     The total energy is F=E-TS. E is the sum of the following terms:
     one-electron contribution = 1161150.94624980 Ry
     hartree contribution      = -580747.10660185 Ry
     xc contribution           =   -2010.79355898 Ry
     ewald contribution        = -591064.95429235 Ry
     DFT-D3 Dispersion         =      -5.43190135 Ry
     one-center paw contrib.   =  -21302.94219331 Ry

     convergence has been achieved in   9 iterations

     negative rho (up, down):  8.975E-04 0.000E+00

     Forces acting on atoms (cartesian axes, Ry/au):

     atom    1 type  1   force =     0.00000150    0.00000233    0.00068783
     atom    2 type  1   force =     0.00002528   -0.00000569   -0.00000095
     atom    3 type  2   force =     0.00000156    0.00000263    0.00000205
     atom    4 type  2   force =    -0.00000037    0.00000273    0.00161513
     atom    5 type  2   force =    -0.00000069    0.00000212   -0.00235909
     atom    6 type  2   force =     0.00000290    0.00000486    0.00000097
     atom    7 type  1   force =    -0.00000700    0.00000410    0.00002176
     atom    8 type  1   force =     0.00000020    0.00001507   -0.00021866
     atom    9 type  2   force =    -0.00028535   -0.00002785   -0.00023450
     atom   10 type  2   force =     0.00000004    0.00000133    0.00001728
     atom   11 type  2   force =    -0.00000018    0.00000702    0.00003464
     atom   12 type  2   force =    -0.00009025   -0.00009070   -0.00022537
     atom   13 type  1   force =     0.00000107    0.00000150    0.00068872
     atom   14 type  1   force =    -0.00001294    0.00001474    0.00000005
     atom   15 type  2   force =     0.00000371    0.00000263    0.00000434
     atom   16 type  2   force =    -0.00000010    0.00000260    0.00161513
     atom   17 type  2   force =    -0.00000054    0.00000211   -0.00235915
     atom   18 type  2   force =     0.00000326    0.00000739   -0.00001441
     atom   19 type  1   force =     0.00001218    0.00000126   -0.00000609
     atom   20 type  1   force =    -0.00010587   -0.00009210   -0.00021739
     atom   21 type  2   force =    -0.00066287    0.00050497    0.00097350
     atom   22 type  2   force =     0.00000205    0.00000736    0.00001672
     atom   23 type  2   force =    -0.00000392    0.00000536    0.00003402
     atom   24 type  2   force =    -0.00009487    0.00008226   -0.00005039
     atom   25 type  1   force =     0.00000041    0.00000135    0.00068838
     atom   26 type  1   force =    -0.00000017   -0.00000867    0.00000907
     atom   27 type  2   force =     0.00000071    0.00000424    0.00000224
     atom   28 type  2   force =    -0.00000033    0.00000258    0.00161522
     atom   29 type  2   force =    -0.00000053    0.00000204   -0.00235927
     atom   30 type  2   force =     0.00000517    0.00000138   -0.00000061
     atom   31 type  1   force =    -0.00001318   -0.00000717    0.00002792
     atom   32 type  1   force =    -0.00030233    0.00026807    0.00027203
     atom   33 type  2   force =     0.00033363    0.00013486   -0.00029174
     atom   34 type  2   force =     0.00001821   -0.00001484   -0.00002808
     atom   35 type  2   force =    -0.00000283    0.00000055    0.00002500
     atom   36 type  2   force =     0.00039870    0.00029462   -0.00030040
     atom   37 type  1   force =     0.00000144    0.00000201    0.00068788
     atom   38 type  1   force =     0.00002483    0.00002637   -0.00001086
     atom   39 type  2   force =    -0.00000005    0.00000331    0.00000581
     atom   40 type  2   force =    -0.00000044    0.00000276    0.00161514
     atom   41 type  2   force =    -0.00000065    0.00000217   -0.00235923
     atom   42 type  2   force =    -0.00000108    0.00000147   -0.00000323
     atom   43 type  1   force =    -0.00000030    0.00001412   -0.00001409
     atom   44 type  1   force =     0.00005393   -0.00042578    0.00026896
     atom   45 type  2   force =     0.00000042   -0.00080851    0.00096187
     atom   46 type  2   force =    -0.00000926    0.00002376   -0.00002718
     atom   47 type  2   force =     0.00000366   -0.00000052    0.00002602
     atom   48 type  2   force =     0.00000014   -0.00011456   -0.00016907
     atom   49 type  1   force =     0.00000032    0.00000233    0.00068787
     atom   50 type  1   force =    -0.00002528   -0.00002350   -0.00000458
     atom   51 type  2   force =    -0.00000029    0.00000488    0.00000627
     atom   52 type  2   force =    -0.00000071    0.00000268    0.00161537
     atom   53 type  2   force =    -0.00000077    0.00000219   -0.00235919
     atom   54 type  2   force =    -0.00000283    0.00000546   -0.00000100
     atom   55 type  1   force =     0.00000628    0.00000430    0.00002203
     atom   56 type  1   force =    -0.00006494    0.00004521   -0.00005442
     atom   57 type  2   force =     0.00028533   -0.00002746   -0.00023458
     atom   58 type  2   force =     0.00001004    0.00000041    0.00003616
     atom   59 type  2   force =     0.00000239    0.00000253    0.00003742
     atom   60 type  2   force =     0.00008934   -0.00009077   -0.00022474
[...]
     atom  180 type  2   force =    -0.00039704    0.00029389   -0.00029863
     atom  181 type  1   force =     0.00000199    0.00000195    0.00068773
     atom  182 type  1   force =    -0.00000822   -0.00000586   -0.00000294
     atom  183 type  2   force =    -0.00000178    0.00000098    0.00000493
     atom  184 type  2   force =    -0.00000028    0.00000262    0.00161523
     atom  185 type  2   force =    -0.00000053    0.00000214   -0.00235927
     atom  186 type  2   force =    -0.00000007   -0.00000107   -0.00000517
     atom  187 type  1   force =    -0.00000596    0.00000380    0.00001627
     atom  188 type  1   force =    -0.00005449   -0.00042661    0.00026804
     atom  189 type  2   force =     0.00045823   -0.00019779    0.00037970
     atom  190 type  2   force =     0.00000878    0.00002443   -0.00002701
     atom  191 type  2   force =    -0.00000349   -0.00000015    0.00002631
     atom  192 type  2   force =    -0.00009263   -0.00006390   -0.00022132
     atom  193 type  3   force =     0.00000165   -0.00014753   -0.00051576
     atom  194 type  4   force =     0.00000030    0.00002305    0.00032610

     Total force =     0.003653     Total SCF correction =     0.000555
     SCF correction compared to forces is large: reduce conv_thr to get better values
     Energy error            =      2.3E-05 Ry
     Gradient error          =      9.7E-04 Ry/Bohr

     bfgs converged in  16 scf cycles and  15 bfgs steps
     (criteria: energy <  1.0E-04 Ry, force <  1.0E-03 Ry/Bohr)

     End of BFGS Geometry Optimization

     Final energy             =  -33980.2822981535 Ry

     File ./outdir/pwscf.bfgs deleted, as requested
Begin final coordinates

ATOMIC_POSITIONS (angstrom)
Mo               0.0000119917        1.8193638619       -9.1672481230    0   0   0
Mo               1.5756136568        0.9097075315       -3.0554901653    0   0   0
S                0.0000188998        1.8193822938       -4.6232556019    0   0   0
S                1.5756321638        0.9096773839       -7.6014065489    0   0   0
S                1.5756326175        0.9096785128      -10.7330757790    0   0   0
S                0.0000189190        1.8193860094       -1.4877129945    0   0   0
Mo               0.0000920134        1.8197187128        3.0560165053
Mo               1.5756720194        0.9108002841        9.1551144032
S                0.0031394504        1.8265583591        7.5850198483
S                1.5756590362        0.9099618078        4.6233069046
S                1.5756591466        0.9095686255        1.4883842731
S               -0.0081354865        1.7978038759       10.7280725962
Mo              -1.5756053507        4.5484193819       -9.1672481230    0   0   0
Mo               0.0000378379        3.6387394919       -3.0554952701    0   0   0
S               -1.5755913433        4.5484363582       -4.6232494962    0   0   0
S                0.0000148214        3.6387329039       -7.6014065489    0   0   0
S                0.0000152751        3.6387340328      -10.7330757790    0   0   0
S               -1.5755906502        4.5484413613       -1.4877305502    0   0   0
Mo              -1.5755758612        4.5487450733        3.0569951847
Mo              -0.0101556608        3.6250044224        9.1760449529
S               -1.5709726649        4.5489126588        7.5993257836
S                0.0006847283        3.6393275116        4.6241110363
S               -0.0003223265        3.6390472422        1.4884046272
S               -1.5785533778        4.5440619888       10.7381860030
Mo              -3.1512226931        7.2774749019       -9.1672481230    0   0   0
Mo              -1.5755910988        6.3678216792       -3.0555115988    0   0   0
S               -3.1512162438        7.2774954350       -4.6232578178    0   0   0
S               -1.5756025210        6.3677884239       -7.6014065489    0   0   0
S               -1.5756020673        6.3677895528      -10.7330757790    0   0   0
S               -3.1512127704        7.2774877076       -1.4877200710    0   0   0
Mo              -3.1511513208        7.2772515331        3.0561725566
Mo              -1.5783570213        6.3652481666        9.1787815210
S               -3.1686945933        7.2644167405        7.6294634115
S               -1.5754144837        6.3683665582        4.6250668611
S               -1.5755577274        6.3675767715        1.4886229751
S               -3.0803201430        7.3377636850       10.7795593196
Mo              -4.7268400355       10.0065304219       -9.1672481230    0   0   0
Mo              -3.1512405618        9.0968403586       -3.0554816746    0   0   0
S               -4.7268341792       10.0065523623       -4.6232463762    0   0   0
S               -3.1512198634        9.0968439439       -7.6014065489    0   0   0
S               -3.1512194097        9.0968450728      -10.7330757790    0   0   0
S               -4.7268370797       10.0065537885       -1.4877176751    0   0   0
Mo              -4.7268102663       10.0063063534        3.0564360913
Mo              -3.1474202119        9.1126195825        9.1585348670
S               -4.7267978890       10.0116318100        7.5823518913
S               -3.1511160663        9.0961263023        4.6241424948
S               -3.1511849461        9.0968052036        1.4885739752
S               -4.7268000850       10.0130699113       10.7237675562
Mo               3.1512517547        1.8193638619       -9.1672481230    0   0   0
Mo               4.7269020221        0.9097289540       -3.0554823951    0   0   0
S                3.1512612351        1.8193882564       -4.6232320683    0   0   0
S                4.7268719268        0.9096773839       -7.6014065489    0   0   0
S                4.7268723805        0.9096785128      -10.7330757790    0   0   0
S                3.1512592485        1.8193890201       -1.4877261251    0   0   0
Mo               3.1512277838        1.8197179379        3.0560163364
Mo               4.7267696408        0.9084449009        9.1457560771
S                3.1482075293        1.8265544895        7.5850201696
S                4.7268282815        0.9100214647        4.6235555805
S                4.7268931609        0.9096393353        1.4884591568
S                3.1594814395        1.7978046439       10.7280727835
[...]
S                6.2316678066        7.3377647777       10.7795499605
Mo               4.7268792535       10.0065304219       -9.1672481230    0   0   0
Mo               6.3025111524        9.0968738021       -3.0554915260    0   0   0
S                4.7268840634       10.0065452125       -4.6232380477    0   0   0
S                6.3024994256        9.0968439439       -7.6014065489    0   0   0
S                6.3024998793        9.0968450728      -10.7330757790    0   0   0
S                4.7268847312       10.0065459141       -1.4877283294    0   0   0
Mo               4.7268641952       10.0063449661        3.0564036558
Mo               6.2987801629        9.1126216063        9.1585318477
S                4.7227855044       10.0035226908        7.5797321641
S                6.3024535452        9.0961256190        4.6241418518
S                6.3025204249        9.0968040988        1.4885737198
S                4.7325220821       10.0331375632       10.7292143660
Pt               1.5756773387        6.3547163242       11.9800523409
Pd               7.8781509684        6.3559317057       12.1060711831
End final coordinates

     Writing all to output data dir ./outdir/pwscf.save/ :
     XML data file, charge density, pseudopotentials, collected wavefunctions

     General routines

     Parallel routines

   This run was terminated on:   4: 7:40  16Mar2024

   JOB DONE.