     Program PWSCF v.7.3 starts on  6Apr2024 at  5:49:26

     Waiting for input...
     Reading input from standard input
Warning: card &CELL ignored
Warning: card / ignored

     Current dimensions of program PWSCF are:
     Max number of different atomic species (ntypx) = 10
     Max number of k-points (npk) =  40000
     Max angular momentum in pseudopotentials (lmaxx) =  4
     file Mo.pbe-spn-kjpaw_psl.1.0.0.UPF: wavefunction(s)  4S 4D renormalized
     file S.pbe-n-kjpaw_psl.1.0.0.UPF: wavefunction(s)  3S 3P renormalized
     file Pd.pbe-spn-kjpaw_psl.1.0.0.UPF: wavefunction(s)  4S 5S 4D renormalized
     file Pt.pbe-spfn-kjpaw_psl.1.0.0.UPF: wavefunction(s)  5P 4F renormalized

     R & G space division:  proc/nbgrp/npool/nimage =      36
     Subspace diagonalization in iterative solution of the eigenvalue problem:
     one sub-group per band group will be used

     Using Slab Decomposition

     bravais-lattice index     =            0
     lattice parameter (alat)  =      23.8199  a.u.
     unit-cell volume          =   33861.0370 (a.u.)^3
     number of atoms/cell      =          195
     number of atomic types    =            4
     number of electrons       =      1732.00
     number of Kohn-Sham states=         1039
     kinetic-energy cutoff     =      77.0000  Ry
     charge density cutoff     =     539.0000  Ry
     scf convergence threshold =      1.0E-06
     mixing beta               =       0.2000
     number of iterations used =            8  plain     mixing
     energy convergence thresh.=      1.0E-04
     force convergence thresh. =      1.0E-03
     Exchange-correlation= SLA  PW   PBX  PBC
                           (   1   4   3   4   0   0   0)
     nstep                     =         1000

     Effective Screening Medium Method
     Boundary Conditions: Vacuum-Slab-Vacuum
     total charge in unit cell        =   0.0000
     grid points for fit at edges     =        4

     celldm(1)=  23.819920  celldm(2)=   0.000000  celldm(3)=   0.000000
     celldm(4)=   0.000000  celldm(5)=   0.000000  celldm(6)=   0.000000

     crystal axes: (cart. coord. in units of alat)
               a(1) = (   1.000000   0.000000   0.000000 )
               a(2) = (  -0.499999   0.866026   0.000000 )
               a(3) = (   0.000000   0.000000   2.893000 )

     reciprocal axes: (cart. coord. in units 2 pi/alat)
               b(1) = (  1.000000  0.577349  0.000000 )
               b(2) = (  0.000000  1.154700  0.000000 )
               b(3) = (  0.000000  0.000000  0.345662 )

     PseudoPot. # 1 for Mo read from file:
     ./pseudo/Mo.pbe-spn-kjpaw_psl.1.0.0.UPF
     MD5 check sum: 317bf72632116215fd98f72de1686f13
     Pseudo is Projector augmented-wave + core cor, Zval = 14.0
     Generated using 'atomic' code by A. Dal Corso  v.7.2
     Shape of augmentation charge: PSQ
     Using radial grid of 1229 points,  6 beta functions with:
                l(1) =   0
                l(2) =   0
                l(3) =   1
                l(4) =   1
                l(5) =   2
                l(6) =   2
     Q(r) pseudized with 0 coefficients

     PseudoPot. # 2 for S  read from file:
     ./pseudo/S.pbe-n-kjpaw_psl.1.0.0.UPF
     MD5 check sum: 8b7b5302570d38d5e87fed6a1065abda
     Pseudo is Projector augmented-wave + core cor, Zval =  6.0
     Generated using 'atomic' code by A. Dal Corso  v.7.2
     Shape of augmentation charge: PSQ
     Using radial grid of 1151 points,  6 beta functions with:
                l(1) =   0
                l(2) =   0
                l(3) =   1
                l(4) =   1
                l(5) =   2
                l(6) =   2
     Q(r) pseudized with 0 coefficients

     PseudoPot. # 3 for Pd read from file:
     ./pseudo/Pd.pbe-spn-kjpaw_psl.1.0.0.UPF
     MD5 check sum: a60571a671f2502b8a6a4569d20a6edb
     Pseudo is Projector augmented-wave + core cor, Zval = 18.0
     Generated using 'atomic' code by A. Dal Corso  v.7.2
     Shape of augmentation charge: PSQ
     Using radial grid of 1235 points,  6 beta functions with:
                l(1) =   0
                l(2) =   0
                l(3) =   1
                l(4) =   1
                l(5) =   2
                l(6) =   2
     Q(r) pseudized with 0 coefficients

     PseudoPot. # 4 for Pt read from file:
     ./pseudo/Pt.pbe-spfn-kjpaw_psl.1.0.0.UPF
     MD5 check sum: 620096ebf4e6ebacc94de60fd67efcb5
     Pseudo is Projector augmented-wave + core cor, Zval = 32.0
     Generated using 'atomic' code by A. Dal Corso  v.7.2
     Shape of augmentation charge: PSQ
     Using radial grid of 1277 points,  8 beta functions with:
                l(1) =   0
                l(2) =   0
                l(3) =   1
                l(4) =   1
                l(5) =   2
                l(6) =   2
                l(7) =   3
                l(8) =   3
     Q(r) pseudized with 0 coefficients

     atomic species   valence    mass     pseudopotential
     Mo               14.00    95.95000     Mo( 1.00)
     S                 6.00    32.06000     S ( 1.00)
     Pd               18.00   106.42000     Pd( 1.00)
     Pt               32.00   195.08400     Pt( 1.00)

     No symmetry found

   Cartesian axes

     site n.     atom                  positions (alat units)
         1        Mo     tau(   1) = (   0.0000010   0.1443372  -0.7272732  )
         2        Mo     tau(   2) = (   0.1249995   0.0721706  -0.2424038  )
         3        S      tau(   3) = (   0.0000015   0.1443386  -0.3667807  )
         4        S      tau(   4) = (   0.1250010   0.0721682  -0.6030489  )
         5        S      tau(   5) = (   0.1250010   0.0721683  -0.8514963  )
         6        S      tau(   6) = (   0.0000015   0.1443389  -0.1180260  )
         7        Mo     tau(   7) = (   0.0000222   0.1444187   0.2425595  )
         8        Mo     tau(   8) = (   0.1245966   0.0727010   0.7278826  )
         9        S      tau(   9) = (   0.0000166   0.1448419   0.6020343  )
        10        S      tau(  10) = (   0.1250561   0.0722903   0.3669179  )
        11        S      tau(  11) = (   0.1250140   0.0722444   0.1181576  )
        12        S      tau(  12) = (  -0.0013476   0.1442175   0.8515296  )
        13        Mo     tau(  13) = (  -0.1249989   0.3608437  -0.7272732  )
        14        Mo     tau(  14) = (   0.0000030   0.2886752  -0.2424042  )
        15        S      tau(  15) = (  -0.1249977   0.3608450  -0.3667802  )
        16        S      tau(  16) = (   0.0000012   0.2886747  -0.6030489  )
        17        S      tau(  17) = (   0.0000012   0.2886748  -0.8514963  )
        18        S      tau(  18) = (  -0.1249977   0.3608454  -0.1180274  )
        19        Mo     tau(  19) = (  -0.1249777   0.3609089   0.2425603  )
        20        Mo     tau(  20) = (  -0.0029637   0.2882853   0.7270120  )
        21        S      tau(  21) = (  -0.1256983   0.3625185   0.6019747  )
        22        S      tau(  22) = (   0.0000591   0.2887797   0.3669668  )
        23        S      tau(  23) = (   0.0000075   0.2887346   0.1181682  )
        24        S      tau(  24) = (  -0.1270233   0.3617098   0.8514678  )
        25        Mo     tau(  25) = (  -0.2499987   0.5773502  -0.7272732  )
        26        Mo     tau(  26) = (  -0.1249977   0.5051839  -0.2424055  )
        27        S      tau(  27) = (  -0.2499981   0.5773518  -0.3667809  )
        28        S      tau(  28) = (  -0.1249986   0.5051812  -0.6030489  )
        29        S      tau(  29) = (  -0.1249986   0.5051813  -0.8514963  )
        30        S      tau(  30) = (  -0.2499979   0.5773512  -0.1180266  )
        31        Mo     tau(  31) = (  -0.2499821   0.5774144   0.2425369  )
        32        Mo     tau(  32) = (  -0.1258229   0.5064885   0.7278520  )
        33        S      tau(  33) = (  -0.2493952   0.5788088   0.6023234  )
        34        S      tau(  34) = (  -0.1249462   0.5052707   0.3669162  )
        35        S      tau(  35) = (  -0.1249880   0.5052329   0.1181602  )
        36        S      tau(  36) = (  -0.2509230   0.5788413   0.8515814  )
        37        Mo     tau(  37) = (  -0.3749985   0.7938567  -0.7272732  )
        38        Mo     tau(  38) = (  -0.2500001   0.7216874  -0.2424031  )
        39        S      tau(  39) = (  -0.3749980   0.7938584  -0.3667800  )
        40        S      tau(  40) = (  -0.2499984   0.7216877  -0.6030489  )
        41        S      tau(  41) = (  -0.2499984   0.7216878  -0.8514963  )
        42        S      tau(  42) = (  -0.3749982   0.7938585  -0.1180264  )
        43        Mo     tau(  43) = (  -0.3749910   0.7939458   0.2425394  )
        44        Mo     tau(  44) = (  -0.2499391   0.7230231   0.7269923  )
        45        S      tau(  45) = (  -0.3746478   0.7955125   0.6023635  )
        46        S      tau(  46) = (  -0.2500018   0.7217675   0.3668983  )
        47        S      tau(  47) = (  -0.2499845   0.7217593   0.1181709  )
        48        S      tau(  48) = (  -0.3753625   0.7942039   0.8516391  )
        49        Mo     tau(  49) = (   0.2500010   0.1443372  -0.7272732  )
        50        Mo     tau(  50) = (   0.3750034   0.0721723  -0.2424032  )
        51        S      tau(  51) = (   0.2500017   0.1443391  -0.3667788  )
        52        S      tau(  52) = (   0.3750010   0.0721682  -0.6030489  )
        53        S      tau(  53) = (   0.3750010   0.0721683  -0.8514963  )
        54        S      tau(  54) = (   0.2500016   0.1443391  -0.1180271  )
        55        Mo     tau(  55) = (   0.2500120   0.1444423   0.2425270  )
        56        Mo     tau(  56) = (   0.3753385   0.0727176   0.7280385  )
        57        S      tau(  57) = (   0.2501061   0.1471948   0.6059873  )
        58        S      tau(  58) = (   0.3749665   0.0722824   0.3669588  )
        59        S      tau(  59) = (   0.3750194   0.0722259   0.1181828  )
        60        S      tau(  60) = (   0.2503224   0.1381707   0.8567863  )
[...]
       181        Mo     tau( 181) = (   0.3750016   0.7938567  -0.7272732  )
       182        Mo     tau( 182) = (   0.5000025   0.7216901  -0.2424039  )
       183        S      tau( 183) = (   0.3750019   0.7938578  -0.3667793  )
       184        S      tau( 184) = (   0.5000016   0.7216877  -0.6030489  )
       185        S      tau( 185) = (   0.5000016   0.7216878  -0.8514963  )
       186        S      tau( 186) = (   0.3750020   0.7938579  -0.1180272  )
       187        Mo     tau( 187) = (   0.3749890   0.7939067   0.2425443  )
       188        Mo     tau( 188) = (   0.5002702   0.7230996   0.7264112  )
       189        S      tau( 189) = (   0.3747820   0.7948530   0.6019718  )
       190        S      tau( 190) = (   0.5000014   0.7217825   0.3669010  )
       191        S      tau( 191) = (   0.5000049   0.7217309   0.1181759  )
       192        S      tau( 192) = (   0.3757788   0.7958654   0.8513800  )
       193        Pd     tau( 193) = (   0.1298567   0.5028633   0.9631584  )
       194        Pd     tau( 194) = (   0.2489715   0.2959876   0.9631435  )
       195        Pt     tau( 195) = (   0.2504570   0.7240008   0.9744578  )

     DFT-D3 Dispersion Correction (3-body terms):
       Reference C6 values for interpolation:

[...]
   -40.6501 -40.6500 -40.6499 -40.6493 -40.6493 -40.6493 -40.6493 -40.6370
   -40.6313 -40.6275 -40.6155 -40.6155 -40.6154 -40.6154 -40.6153 -40.6153
   -40.6153 -40.6152 -40.6145 -40.6145 -40.6145 -40.6145 -40.6141 -40.6033
   -40.6033 -40.6032 -40.6031 -40.6024 -40.6024 -40.5963 -40.5922 -40.5876
   -40.5859 -40.5840 -40.5840 -40.5840 -40.5838 -40.5837 -40.5830 -40.5830
   -40.5670 -40.5670 -40.5669 -40.5668 -40.5660 -40.5660 -40.5660 -40.5627
   -40.5536 -40.5364 -40.5363 -40.5363 -40.5362 -40.5361 -40.5358 -40.5353
   -40.5353 -40.5172 -40.4947 -20.1046 -19.8772 -19.8488 -19.8218 -19.7516
   -19.7266 -19.6418 -19.6302 -19.5605 -19.4962 -19.4117 -19.4072 -19.3213
   -19.3137 -19.2167 -19.2105 -19.1126 -18.9585 -18.8525 -18.8076 -18.7727
   -18.7425 -18.7036 -18.7027 -18.6997 -18.6963 -18.6887 -18.6607 -18.6383
   -18.6356 -18.6276 -18.6192 -18.5962 -18.5809 -18.5585 -18.5418 -18.5350
   -18.5318 -18.5288 -18.5097 -18.5050 -18.4759 -18.4703 -18.4590 -18.4493
   -18.4322 -18.4104 -18.3929 -18.3878 -18.3851 -18.3629 -18.3426 -18.3278
   -18.3114 -18.3067 -18.2934 -18.2578 -18.2523 -18.2294 -18.2258 -18.1993
   -18.1740 -18.1696 -18.1605 -18.1461 -18.1201 -18.1119 -18.1044 -18.0927
   -18.0806 -18.0782 -18.0770 -18.0765 -18.0569 -18.0541 -18.0517 -18.0481
   -18.0474 -18.0442 -18.0384 -18.0350 -18.0323 -18.0246 -18.0134 -17.9916
   -17.9888 -17.9873 -17.9835 -17.9807 -17.9792 -17.9789 -17.9729 -17.9688
   -17.9607 -17.9342 -17.9268 -17.9232 -17.9164 -17.9136 -17.9054 -17.8804
   -17.8747 -17.8705 -17.8596 -17.8559 -17.8418 -17.8275 -17.8249 -17.8218
   -17.8192 -17.7994 -17.7991 -17.7985 -17.7977 -17.7975 -17.7966 -17.7855
   -17.7834 -17.7666 -17.7627 -17.7416 -17.7384 -17.7222 -17.7181 -17.7068
   -17.7042 -17.6989 -17.6985 -12.1562 -11.9500 -11.7427 -11.7187 -11.6843
   -11.6251 -11.5728 -11.5563 -11.5012 -11.4799 -11.4786 -11.4759 -11.4626
   -11.4600 -11.4430 -11.4344 -11.3924 -11.3865 -11.3821 -11.3713 -11.3584
   -11.3354 -11.3281 -11.3172 -11.3023 -11.2820 -11.2792 -11.2564 -11.2516
   -11.2464 -11.2416 -11.2368 -11.2342 -11.2150 -11.1916 -11.1898 -11.1799
   -11.1752 -11.1626 -11.1579 -11.1537 -11.1496 -11.1423 -11.1301 -11.1268
   -11.1136 -11.1098 -11.0950 -11.0696 -11.0602 -11.0547 -11.0302 -10.9954
   -10.9728 -10.9569 -10.9423 -10.9284 -10.9113 -10.8953 -10.8882 -10.8872
   -10.8652 -10.8628 -10.8329 -10.8209 -10.8165 -10.8162 -10.8084 -10.8004
   -10.7909 -10.7902 -10.7898 -10.7885 -10.7871 -10.7813 -10.7791 -10.7726
[...]
    -3.3813  -3.3576  -3.3332  -3.3308  -3.3267  -3.3236  -3.3219  -3.3187
    -3.3144  -3.3089  -3.2847  -3.2748  -3.2627  -3.2618  -3.2578  -3.2570
    -3.2562  -3.2553  -3.2488  -3.2318  -3.2286  -3.2220  -3.2157  -3.2085
    -3.2059  -3.2043  -3.1972  -3.1899  -3.1864  -3.1806  -3.1751  -3.1667
    -3.1597  -3.1565  -3.1513  -3.1478  -3.1396  -3.1395  -3.1365  -3.1309
    -3.1013  -3.0778  -3.0715  -3.0680  -3.0593  -3.0505  -3.0436  -3.0360
    -3.0133  -3.0057  -3.0015  -3.0000  -2.9986  -2.9985  -2.9946  -2.9921
    -2.9876  -2.9871  -2.9817  -2.9772  -2.9737  -2.9691  -2.9648  -2.9603
    -2.9576  -2.9523  -2.9498  -2.9475  -2.9454  -2.9411  -2.9310  -2.9251
    -2.9236  -2.9167  -2.9130  -2.9099  -2.9016  -2.8904  -2.8881  -2.8792
    -2.8700  -2.8696  -2.8595  -2.8545  -2.8493  -2.8236  -2.7835  -2.7793
    -2.7691  -2.7651  -2.7262  -2.7171  -2.7021  -2.6910  -2.6135  -2.5933
    -2.5868  -2.5782  -2.5627  -2.5506  -2.5443  -2.5272  -2.5232  -2.5174
    -2.5086  -2.5054  -2.5034  -2.4973  -2.4845  -2.4291  -2.3985  -2.3912
    -2.3834  -2.3798  -2.3692  -2.3615  -2.3584  -2.3336  -2.3307

     the Fermi energy is    -4.7048 ev

!    total energy              =  -34492.26011731 Ry
     total all-electron energy =   -677498.139804 Ry
     estimated scf accuracy    <          5.0E-09 Ry
     smearing contrib. (-TS)   =      -0.00000017 Ry
     internal energy E=F+TS    =  -34492.26011714 Ry

     The total energy is F=E-TS. E is the sum of the following terms:
     one-electron contribution = 1196866.07616079 Ry
     hartree contribution      = -598610.71828613 Ry
     xc contribution           =   -2041.78780420 Ry
     ewald contribution        = -609142.21137154 Ry
     DFT-D3 Dispersion         =      -5.46881634 Ry
     one-center paw contrib.   =  -21558.14999972 Ry

     convergence has been achieved in  11 iterations

     negative rho (up, down):  9.481E-04 0.000E+00

     Forces acting on atoms (cartesian axes, Ry/au):

     atom    1 type  1   force =     0.00000084    0.00000192    0.00068860
     atom    2 type  1   force =     0.00002212   -0.00000263    0.00000687
     atom    3 type  2   force =     0.00000173    0.00000136    0.00000014
     atom    4 type  2   force =    -0.00000035    0.00000248    0.00161522
     atom    5 type  2   force =    -0.00000067    0.00000200   -0.00235993
     atom    6 type  2   force =    -0.00000074    0.00001167    0.00002624
     atom    7 type  1   force =     0.00000246    0.00001706    0.00000227
     atom    8 type  1   force =     0.00008718    0.00000163   -0.00006453
     atom    9 type  2   force =     0.00000159    0.00007574   -0.00001649
     atom   10 type  2   force =    -0.00001338   -0.00000710    0.00001143
     atom   11 type  2   force =     0.00002575    0.00003772    0.00002742
     atom   12 type  2   force =     0.00027014   -0.00003139   -0.00003140
     atom   13 type  1   force =     0.00000058    0.00000128    0.00068894
     atom   14 type  1   force =    -0.00001174    0.00001861    0.00000689
     atom   15 type  2   force =     0.00000366    0.00000092    0.00000229
     atom   16 type  2   force =    -0.00000014    0.00000243    0.00161519
     atom   17 type  2   force =    -0.00000048    0.00000190   -0.00235995
     atom   18 type  2   force =     0.00000538    0.00001372    0.00002870
     atom   19 type  1   force =    -0.00000747    0.00002460    0.00002540
     atom   20 type  1   force =     0.00011224   -0.00005030   -0.00003420
     atom   21 type  2   force =    -0.00006046    0.00003458    0.00027200
     atom   22 type  2   force =    -0.00000729    0.00001853   -0.00002292
     atom   23 type  2   force =     0.00000234    0.00003338    0.00003106
     atom   24 type  2   force =    -0.00008209    0.00000626   -0.00029116
     atom   25 type  1   force =     0.00000121    0.00000138    0.00068810
     atom   26 type  1   force =     0.00000254   -0.00000070    0.00002055
     atom   27 type  2   force =     0.00000080    0.00000346   -0.00000017
     atom   28 type  2   force =    -0.00000019    0.00000246    0.00161521
     atom   29 type  2   force =    -0.00000046    0.00000191   -0.00236007
     atom   30 type  2   force =     0.00000385    0.00000765    0.00003716
     atom   31 type  1   force =    -0.00000409    0.00001896    0.00005197
     atom   32 type  1   force =    -0.00008334    0.00003015   -0.00011733
     atom   33 type  2   force =    -0.00003511   -0.00022080    0.00024560
     atom   34 type  2   force =     0.00000811    0.00002239    0.00000174
     atom   35 type  2   force =    -0.00002250    0.00002468    0.00003864
     atom   36 type  2   force =     0.00008300   -0.00007474    0.00016850
     atom   37 type  1   force =     0.00000144    0.00000147    0.00068786
     atom   38 type  1   force =     0.00002635    0.00003014   -0.00000112
     atom   39 type  2   force =    -0.00000019    0.00000247    0.00000376
     atom   40 type  2   force =    -0.00000029    0.00000254    0.00161531
     atom   41 type  2   force =    -0.00000056    0.00000189   -0.00235995
     atom   42 type  2   force =    -0.00000213    0.00001001    0.00002811
     atom   43 type  1   force =     0.00000432    0.00000693   -0.00000946
     atom   44 type  1   force =     0.00008277   -0.00005129    0.00012634
     atom   45 type  2   force =     0.00012766   -0.00013487    0.00008616
     atom   46 type  2   force =     0.00000812    0.00004471    0.00001127
     atom   47 type  2   force =     0.00000020   -0.00000551    0.00003230
     atom   48 type  2   force =     0.00012320    0.00009512    0.00004379
     atom   49 type  1   force =     0.00000136    0.00000143    0.00068847
     atom   50 type  1   force =    -0.00002015   -0.00002186    0.00000248
     atom   51 type  2   force =    -0.00000028    0.00000369    0.00000518
     atom   52 type  2   force =    -0.00000058    0.00000242    0.00161551
     atom   53 type  2   force =    -0.00000067    0.00000197   -0.00235997
     atom   54 type  2   force =    -0.00000098    0.00000952    0.00004009
     atom   55 type  1   force =     0.00001166    0.00000929    0.00004115
     atom   56 type  1   force =     0.00005500    0.00007158    0.00008545
     atom   57 type  2   force =     0.00008189    0.00026339    0.00027905
     atom   58 type  2   force =     0.00001447   -0.00000201    0.00000541
     atom   59 type  2   force =    -0.00001093    0.00004779    0.00003262
     atom   60 type  2   force =    -0.00012696    0.00024724    0.00003485
[...]
     atom  181 type  1   force =     0.00000087    0.00000122    0.00068859
     atom  182 type  1   force =    -0.00000825   -0.00000451    0.00000906
     atom  183 type  2   force =    -0.00000193    0.00000000    0.00000454
     atom  184 type  2   force =    -0.00000050    0.00000243    0.00161540
     atom  185 type  2   force =    -0.00000062    0.00000188   -0.00235994
     atom  186 type  2   force =    -0.00000627    0.00000651    0.00004227
     atom  187 type  1   force =     0.00000764    0.00001274    0.00001536
     atom  188 type  1   force =     0.00020745   -0.00004481    0.00011733
     atom  189 type  2   force =    -0.00004539   -0.00024892    0.00030721
     atom  190 type  2   force =    -0.00000370    0.00004636   -0.00001997
     atom  191 type  2   force =    -0.00000414    0.00000117    0.00001586
     atom  192 type  2   force =     0.00012950    0.00025132   -0.00005442
     atom  193 type  3   force =     0.00099808   -0.00039058    0.00006806
     atom  194 type  3   force =    -0.00004855   -0.00016451    0.00038398
     atom  195 type  4   force =     0.00018075   -0.00022160    0.00009496

     Total force =     0.002768     Total SCF correction =     0.000356
     SCF correction compared to forces is large: reduce conv_thr to get better values
     Energy error            =      1.6E-05 Ry
     Gradient error          =      1.0E-03 Ry/Bohr

     bfgs converged in  22 scf cycles and  21 bfgs steps
     (criteria: energy <  1.0E-04 Ry, force <  1.0E-03 Ry/Bohr)

     End of BFGS Geometry Optimization

     Final energy             =  -34492.2601173121 Ry

     File ./outdir/pwscf.bfgs deleted, as requested
Begin final coordinates

ATOMIC_POSITIONS (angstrom)
Mo               0.0000119917        1.8193638619       -9.1672481230    0   0   0
Mo               1.5756136568        0.9097075315       -3.0554901653    0   0   0
S                0.0000188998        1.8193822938       -4.6232556019    0   0   0
S                1.5756321638        0.9096773839       -7.6014065489    0   0   0
S                1.5756326175        0.9096785128      -10.7330757790    0   0   0
S                0.0000189190        1.8193860094       -1.4877129945    0   0   0
Mo              -0.0000808754        1.8211795057        3.0589136538
Mo               1.5686487715        0.9207038396        9.1851429608
S               -0.0060293647        1.8198631231        7.6009422463
S                1.5762378218        0.9123164023        4.6262576663
S                1.5751450944        0.9115440418        1.4904247619
S               -0.0040788547        1.8390893590       10.7498184589
Mo              -1.5756053507        4.5484193819       -9.1672481230    0   0   0
Mo               0.0000378379        3.6387394919       -3.0554952701    0   0   0
S               -1.5755913433        4.5484363582       -4.6232494962    0   0   0
S                0.0000148214        3.6387329039       -7.6014065489    0   0   0
S                0.0000152751        3.6387340328      -10.7330757790    0   0   0
S               -1.5755906502        4.5484413613       -1.4877305502    0   0   0
Mo              -1.5754449216        4.5501667817        3.0584413044
Mo              -0.0281073940        3.6388234517        9.1644355323
S               -1.5797652598        4.5651917806        7.5834499723
S                0.0001624786        3.6407346515        4.6268320535
S                0.0000843761        3.6403570053        1.4908323301
S               -1.5974703008        4.5649110829       10.7289813753
Mo              -3.1512226931        7.2774749019       -9.1672481230    0   0   0
Mo              -1.5755910988        6.3678216792       -3.0555115988    0   0   0
S               -3.1512162438        7.2774954350       -4.6232578178    0   0   0
S               -1.5756025210        6.3677884239       -7.6014065489    0   0   0
S               -1.5756020673        6.3677895528      -10.7330757790    0   0   0
S               -3.1512127704        7.2774877076       -1.4877200710    0   0   0
Mo              -3.1510272467        7.2795410702        3.0580049806
Mo              -1.5834382037        6.3853549902        9.1640308919
S               -3.1442235136        7.2990575890        7.5847605010
S               -1.5754853312        6.3698364598        4.6258157960
S               -1.5749693011        6.3697090517        1.4906896293
S               -3.1570182365        7.2931039031       10.7271112335
Mo              -4.7268400355       10.0065304219       -9.1672481230    0   0   0
Mo              -3.1512405618        9.0968403586       -3.0554816746    0   0   0
S               -4.7268341792       10.0065523623       -4.6232463762    0   0   0
S               -3.1512198634        9.0968439439       -7.6014065489    0   0   0
S               -3.1512194097        9.0968450728      -10.7330757790    0   0   0
S               -4.7268370797       10.0065537885       -1.4877176751    0   0   0
Mo              -4.7270509840       10.0087983838        3.0585552424
Mo              -3.1549943676        9.1154732852        9.1604192077
S               -4.7326416017       10.0327813199        7.5989851176
S               -3.1514847166        9.0989889695        4.6259606897
S               -3.1511885284        9.0991189095        1.4906422409
S               -4.7196764436       10.0119044523       10.7443845985
Mo               3.1512517547        1.8193638619       -9.1672481230    0   0   0
Mo               4.7269020221        0.9097289540       -3.0554823951    0   0   0
S                3.1512612351        1.8193882564       -4.6232320683    0   0   0
S                4.7268719268        0.9096773839       -7.6014065489    0   0   0
S                4.7268723805        0.9096785128      -10.7330757790    0   0   0
S                3.1512592485        1.8193890201       -1.4877261251    0   0   0
Mo               3.1511003078        1.8215997544        3.0576214979
Mo               4.7285258813        0.9205278359        9.1779211284
S                3.1466249999        1.8561639681        7.6423014164
S                4.7259525261        0.9123222430        4.6263364382
S                4.7271474730        0.9113653491        1.4905696302
S                3.1550708817        1.7613766311       10.7998236100
[...]
Mo               4.7268792535       10.0065304219       -9.1672481230    0   0   0
Mo               6.3025111524        9.0968738021       -3.0554915260    0   0   0
S                4.7268840634       10.0065452125       -4.6232380477    0   0   0
S                6.3024994256        9.0968439439       -7.6014065489    0   0   0
S                6.3024998793        9.0968450728      -10.7330757790    0   0   0
S                4.7268847312       10.0065459141       -1.4877283294    0   0   0
Mo               4.7264280928       10.0082676123        3.0583646154
Mo               6.3129070485        9.1132537502        9.1749798425
S                4.7052404502       10.0143264810        7.6412854979
S                6.3018648116        9.0995529307        4.6263260993
S                6.3023466077        9.0986471955        1.4908006673
S                4.8092227941       10.0671271560       10.8223314907
Pd               1.7018317062        6.4418723472       12.3010115212
Pd               3.1272761286        3.7715487907       12.1172868111
Pt               3.0797510246        8.9791972297       12.0401855515
End final coordinates

     Writing all to output data dir ./outdir/pwscf.save/ :
     XML data file, charge density, pseudopotentials, collected wavefunctions

     General routines

     Parallel routines

   This run was terminated on:  10: 8:45   8Apr2024

   JOB DONE.