     Program PWSCF v.7.3 starts on 10Mar2024 at  5:37:33

     Waiting for input...
     Reading input from standard input
Warning: card &CELL ignored
Warning: card / ignored

     Current dimensions of program PWSCF are:
     Max number of different atomic species (ntypx) = 10
     Max number of k-points (npk) =  40000
     Max angular momentum in pseudopotentials (lmaxx) =  4
     file Mo.pbe-spn-kjpaw_psl.1.0.0.UPF: wavefunction(s)  4S 4D renormalized
     file S.pbe-n-kjpaw_psl.1.0.0.UPF: wavefunction(s)  3S 3P renormalized
     file Pt.pbe-spfn-kjpaw_psl.1.0.0.UPF: wavefunction(s)  5P 4F renormalized
     file Pd.pbe-spn-kjpaw_psl.1.0.0.UPF: wavefunction(s)  4S 5S 4D renormalized

     R & G space division:  proc/nbgrp/npool/nimage =      36
     Subspace diagonalization in iterative solution of the eigenvalue problem:
     one sub-group per band group will be used

     Using Slab Decomposition

     bravais-lattice index     =            0
     lattice parameter (alat)  =      23.8395  a.u.
     unit-cell volume          =   28182.8498 (a.u.)^3
     number of atoms/cell      =          146
     number of atomic types    =            4
     number of electrons       =      1298.00
     number of Kohn-Sham states=          779
     kinetic-energy cutoff     =      77.0000  Ry
     charge density cutoff     =     539.0000  Ry
     scf convergence threshold =      1.0E-06
     mixing beta               =       0.2000
     number of iterations used =            8  plain     mixing
     energy convergence thresh.=      1.0E-04
     force convergence thresh. =      1.0E-03
     Exchange-correlation= SLA  PW   PBX  PBC
                           (   1   4   3   4   0   0   0)
     nstep                     =         1000

     Effective Screening Medium Method
     Boundary Conditions: Vacuum-Slab-Vacuum
     total charge in unit cell        =   0.0000
     grid points for fit at edges     =        4

     celldm(1)=  23.839504  celldm(2)=   0.000000  celldm(3)=   0.000000
     celldm(4)=   0.000000  celldm(5)=   0.000000  celldm(6)=   0.000000

     crystal axes: (cart. coord. in units of alat)
               a(1) = (   1.000000   0.000000   0.000000 )
               a(2) = (  -0.500001   0.866026   0.000000 )
               a(3) = (   0.000000   0.000000   2.401941 )

     reciprocal axes: (cart. coord. in units 2 pi/alat)
               b(1) = (  1.000000  0.577351  0.000000 )
               b(2) = (  0.000000  1.154700  0.000000 )
               b(3) = (  0.000000  0.000000  0.416330 )

     PseudoPot. # 1 for Mo read from file:
     ./pseudo/Mo.pbe-spn-kjpaw_psl.1.0.0.UPF
     MD5 check sum: 317bf72632116215fd98f72de1686f13
     Pseudo is Projector augmented-wave + core cor, Zval = 14.0
     Generated using 'atomic' code by A. Dal Corso  v.7.2
     Shape of augmentation charge: PSQ
     Using radial grid of 1229 points,  6 beta functions with:
                l(1) =   0
                l(2) =   0
                l(3) =   1
                l(4) =   1
                l(5) =   2
                l(6) =   2
     Q(r) pseudized with 0 coefficients

     PseudoPot. # 2 for S  read from file:
     ./pseudo/S.pbe-n-kjpaw_psl.1.0.0.UPF
     MD5 check sum: 8b7b5302570d38d5e87fed6a1065abda
     Pseudo is Projector augmented-wave + core cor, Zval =  6.0
     Generated using 'atomic' code by A. Dal Corso  v.7.2
     Shape of augmentation charge: PSQ
     Using radial grid of 1151 points,  6 beta functions with:
                l(1) =   0
                l(2) =   0
                l(3) =   1
                l(4) =   1
                l(5) =   2
                l(6) =   2
     Q(r) pseudized with 0 coefficients

     PseudoPot. # 3 for Pt read from file:
     ./pseudo/Pt.pbe-spfn-kjpaw_psl.1.0.0.UPF
     MD5 check sum: 620096ebf4e6ebacc94de60fd67efcb5
     Pseudo is Projector augmented-wave + core cor, Zval = 32.0
     Generated using 'atomic' code by A. Dal Corso  v.7.2
     Shape of augmentation charge: PSQ
     Using radial grid of 1277 points,  8 beta functions with:
                l(1) =   0
                l(2) =   0
                l(3) =   1
                l(4) =   1
                l(5) =   2
                l(6) =   2
                l(7) =   3
                l(8) =   3
     Q(r) pseudized with 0 coefficients

     PseudoPot. # 4 for Pd read from file:
     ./pseudo/Pd.pbe-spn-kjpaw_psl.1.0.0.UPF
     MD5 check sum: a60571a671f2502b8a6a4569d20a6edb
     Pseudo is Projector augmented-wave + core cor, Zval = 18.0
     Generated using 'atomic' code by A. Dal Corso  v.7.2
     Shape of augmentation charge: PSQ
     Using radial grid of 1235 points,  6 beta functions with:
                l(1) =   0
                l(2) =   0
                l(3) =   1
                l(4) =   1
                l(5) =   2
                l(6) =   2
     Q(r) pseudized with 0 coefficients

     atomic species   valence    mass     pseudopotential
     Mo               14.00    95.95000     Mo( 1.00)
     S                 6.00    32.06000     S ( 1.00)
     Pt               32.00   195.08400     Pt( 1.00)
     Pd               18.00   106.42000     Pd( 1.00)

     No symmetry found

   Cartesian axes

     site n.     atom                  positions (alat units)
         1        Mo     tau(   1) = (   0.1245066   0.2151403   0.4829270  )
         2        Mo     tau(   2) = (   0.1250004   0.0721694  -0.4825273  )
         3        Mo     tau(   3) = (   0.0000143   0.1443586  -0.0000404  )
         4        S      tau(   4) = (   0.0000004   0.0000006  -0.6064556  )
         5        S      tau(   5) = (   0.1249859   0.0722111  -0.1241825  )
         6        S      tau(   6) = (   0.0002990   0.1445714   0.3572522  )
         7        S      tau(   7) = (   0.0000004   0.0000005  -0.3584711  )
         8        S      tau(   8) = (   0.1250243   0.0721377   0.1241202  )
         9        S      tau(   9) = (  -0.0011552   0.1430195   0.6061730  )
        10        Mo     tau(  10) = (  -0.0014303   0.4332690   0.4829269  )
        11        Mo     tau(  11) = (   0.0000001   0.2886759  -0.4825273  )
        12        Mo     tau(  12) = (  -0.1249759   0.3608474  -0.0000404  )
        13        S      tau(  13) = (  -0.1249999   0.2165071  -0.6064556  )
        14        S      tau(  14) = (   0.0000250   0.2886908  -0.1241273  )
        15        S      tau(  15) = (  -0.1246483   0.3609863   0.3572522  )
        16        S      tau(  16) = (  -0.1249998   0.2165070  -0.3584711  )
        17        S      tau(  17) = (   0.0000923   0.2887297   0.1242244  )
        18        S      tau(  18) = (  -0.1267194   0.3605027   0.6061730  )
        19        Mo     tau(  19) = (  -0.1251617   0.6496109   0.4820319  )
        20        Mo     tau(  20) = (  -0.1250002   0.5051824  -0.4825273  )
        21        Mo     tau(  21) = (  -0.2500022   0.5773395  -0.0001503  )
        22        S      tau(  22) = (  -0.2500002   0.4330136  -0.6064556  )
        23        S      tau(  23) = (  -0.1249718   0.5051500  -0.1241823  )
        24        S      tau(  24) = (  -0.2500018   0.5776353   0.3574746  )
        25        S      tau(  25) = (  -0.2500001   0.4330135  -0.3584711  )
        26        S      tau(  26) = (  -0.1250162   0.5052198   0.1241203  )
        27        S      tau(  27) = (  -0.2500018   0.5771316   0.6060170  )
        28        Mo     tau(  28) = (   0.2499988  -0.0001852   0.4820322  )
        29        Mo     tau(  29) = (  -0.2500004   0.7216889  -0.4825273  )
        30        Mo     tau(  30) = (  -0.3750121   0.7938628  -0.0001504  )
        31        S      tau(  31) = (  -0.3750004   0.6495201  -0.6064556  )
        32        S      tau(  32) = (  -0.2500022   0.7216884  -0.1242395  )
        33        S      tau(  33) = (  -0.3747547   0.7937137   0.3574746  )
        34        S      tau(  34) = (  -0.3750004   0.6495200  -0.3584711  )
        35        S      tau(  35) = (  -0.2500023   0.7216883   0.1240244  )
        36        S      tau(  36) = (  -0.3751912   0.7939655   0.6060169  )
        37        Mo     tau(  37) = (   0.3754907   0.2151405   0.4829271  )
        38        Mo     tau(  38) = (   0.3750004   0.0721694  -0.4825273  )
        39        Mo     tau(  39) = (   0.2499984   0.1443573  -0.0000731  )
        40        S      tau(  40) = (   0.2500004   0.0000006  -0.6064556  )
        41        S      tau(  41) = (   0.3750112   0.0722112  -0.1241824  )
        42        S      tau(  42) = (   0.2499987   0.1444686   0.3583292  )
        43        S      tau(  43) = (   0.2500004   0.0000005  -0.3584711  )
        44        S      tau(  44) = (   0.3749727   0.0721378   0.1241202  )
        45        S      tau(  45) = (   0.2499989   0.1436262   0.6067914  )
        46        Mo     tau(  46) = (   0.2499982   0.4330120   0.4873213  )
        47        Mo     tau(  47) = (   0.2500001   0.2886759  -0.4825273  )
        48        Mo     tau(  48) = (   0.1250313   0.3608632  -0.0000369  )
        49        S      tau(  49) = (   0.1250001   0.2165071  -0.6064556  )
        50        S      tau(  50) = (   0.2499984   0.2886902  -0.1241509  )
        51        S      tau(  51) = (   0.1269276   0.3619573   0.3622727  )
        52        S      tau(  52) = (   0.1250002   0.2165070  -0.3584711  )
        53        S      tau(  53) = (   0.2499983   0.2886817   0.1242427  )
        54        S      tau(  54) = (   0.1143670   0.3547054   0.6129634  )
        55        Mo     tau(  55) = (   0.1240620   0.6506275   0.4829270  )
        56        Mo     tau(  56) = (   0.1249998   0.5051824  -0.4825273  )
        57        Mo     tau(  57) = (   0.0000150   0.5773409  -0.0000731  )
        58        S      tau(  58) = (  -0.0000002   0.4330136  -0.6064556  )
        59        S      tau(  59) = (   0.1250108   0.5051746  -0.1241509  )
        60        S      tau(  60) = (   0.0001121   0.5772840   0.3583290  )
[...]
       132        S      tau( 132) = (   0.4998845   0.5772841   0.3583289  )
       133        S      tau( 133) = (   0.4999999   0.4330135  -0.3584711  )
       134        S      tau( 134) = (   0.6250119   0.5052197   0.1241202  )
       135        S      tau( 135) = (   0.5006138   0.5777054   0.6067911  )
       136        Mo     tau( 136) = (  -0.0000756   0.0000425   0.4811258  )
       137        Mo     tau( 137) = (   0.4999996   0.7216889  -0.4825273  )
       138        Mo     tau( 138) = (   0.3749875   0.7938333  -0.0000404  )
       139        S      tau( 139) = (   0.3749996   0.6495201  -0.6064556  )
       140        S      tau( 140) = (   0.4999549   0.7216781  -0.1241825  )
       141        S      tau( 141) = (   0.3749453   0.7934797   0.3572516  )
       142        S      tau( 142) = (   0.3749996   0.6495200  -0.3584711  )
       143        S      tau( 143) = (   0.5000375   0.7216816   0.1241203  )
       144        S      tau( 144) = (   0.3755618   0.7955149   0.6061729  )
       145        Pt     tau( 145) = (   0.2499972   0.4330095   0.7045710  )
       146        Pd     tau( 146) = (   0.3759714   0.6506374   0.7365646  )

     DFT-D3 Dispersion Correction (3-body terms):
       Reference C6 values for interpolation:

[...]
   -40.6403 -40.6328 -40.6323 -40.6249 -40.6217 -40.6157 -40.6157 -40.6098
   -40.6043 -40.5858 -40.5854 -40.5850 -40.5828 -40.5754 -40.5731 -40.5694
   -40.5519 -40.5495 -40.5443 -40.5308 -40.5209 -40.5053 -40.4795 -20.0134
   -19.9157 -19.8988 -19.8097 -19.7406 -19.6882 -19.5014 -19.4830 -19.4544
   -19.4007 -19.3144 -19.2833 -19.0875 -18.8415 -18.7929 -18.7763 -18.7735
   -18.7707 -18.7674 -18.7468 -18.7250 -18.6985 -18.6663 -18.6478 -18.6374
   -18.6238 -18.6147 -18.5818 -18.5743 -18.5733 -18.5247 -18.5228 -18.4959
   -18.4841 -18.4610 -18.4444 -18.4338 -18.4256 -18.3999 -18.3558 -18.3307
   -18.3138 -18.3002 -18.2656 -18.2528 -18.2500 -18.2195 -18.2053 -18.1685
   -18.1587 -18.1584 -18.1584 -18.1582 -18.1553 -18.1433 -18.1321 -18.1133
   -18.0964 -18.0848 -18.0824 -18.0798 -18.0768 -18.0734 -18.0452 -18.0425
   -18.0237 -18.0178 -18.0152 -18.0033 -18.0022 -17.9802 -17.9717 -17.9683
   -17.9601 -17.9571 -17.9430 -17.9217 -17.9070 -17.8961 -17.8951 -17.8950
   -17.8926 -17.8550 -17.8426 -17.8354 -17.8352 -17.8213 -17.8194 -17.8187
   -17.8170 -17.7926 -17.7883 -17.7753 -17.7733 -17.7203 -17.7107 -12.0726
   -11.8632 -11.7122 -11.7013 -11.6116 -11.5091 -11.5064 -11.5064 -11.5026
   -11.5007 -11.4809 -11.4687 -11.4327 -11.4294 -11.4147 -11.4065 -11.3934
   -11.3787 -11.3557 -11.3449 -11.3309 -11.3290 -11.3139 -11.3026 -11.2879
   -11.2879 -11.2802 -11.2510 -11.2421 -11.2420 -11.2103 -11.1859 -11.1832
   -11.1824 -11.1525 -11.1092 -11.0399 -11.0313 -11.0205 -11.0069 -10.9934
   -10.9743 -10.9503 -10.9450 -10.9429 -10.9359 -10.9288 -10.8993 -10.8957
   -10.8847 -10.8708 -10.8617 -10.8614 -10.8608 -10.8595 -10.8590 -10.8349
   -10.8266 -10.8141 -10.7995 -10.7959 -10.7900 -10.7829 -10.7468 -10.7154
   -10.6230 -10.6093 -10.5771 -10.5239 -10.5160 -10.4333 -10.4018 -10.3535
   -10.2845 -10.2087 -10.1696 -10.1651 -10.1571 -10.1382 -10.1290 -10.1029
   -10.0864 -10.0653 -10.0207 -10.0060  -9.9943  -9.9723  -9.9685  -9.9618
    -9.9598  -9.9526  -9.9361  -9.9290  -9.9236  -9.9154  -9.8967  -9.8485
    -9.8306  -9.8208  -9.8144  -9.7898  -9.7777  -9.7690  -9.7518  -9.7453
    -9.7439  -9.7343  -9.7279  -9.6970  -9.6926  -9.6851  -9.6783  -9.6751
    -9.6452  -9.6439  -9.6299  -9.6196  -9.5712  -9.5628  -9.5605  -9.5507
    -9.5321  -9.5024  -9.5003  -9.4882  -9.4614  -9.3807  -9.3621  -9.3266
    -9.3098  -9.2901  -9.2531  -9.2366  -9.2255  -9.2005  -9.1785  -9.1672
    -9.1638  -9.1609  -9.1589  -9.1413  -9.1306  -9.1169  -9.1049  -9.0700
    -9.0630  -9.0527  -9.0479  -9.0471  -9.0281  -9.0207  -8.9981  -8.9978
    -8.9881  -8.9771  -8.9729  -8.9663  -8.9624  -8.9617  -8.9453  -8.9395
    -8.9230  -8.9022  -8.8995  -8.8892  -8.8884  -8.8846  -8.8759  -8.8709
    -8.8702  -8.8640  -8.8590  -8.8471  -8.8356  -8.8175  -8.8046  -8.8037
[...]
    -3.7906  -3.7438  -3.7171  -3.6656  -3.6320  -3.6301  -3.6246  -3.6243
    -3.6106  -3.6101  -3.6012  -3.5846  -3.5765  -3.5445  -3.5341  -3.5308
    -3.5244  -3.5194  -3.5106  -3.5101  -3.5010  -3.4926  -3.4895  -3.4592
    -3.4546  -3.4347  -3.4060  -3.3980  -3.3880  -3.3777  -3.3770  -3.3715
    -3.3482  -3.3463  -3.3414  -3.3376  -3.3152  -3.3025  -3.3017  -3.3007
    -3.3005  -3.2933  -3.2821  -3.2714  -3.2669  -3.2551  -3.2465  -3.2412
    -3.2353  -3.2280  -3.2219  -3.2132  -3.2094  -3.1865  -3.1646  -3.1516
    -3.1406  -3.1310  -3.1179  -3.0986  -3.0950  -3.0655  -3.0601  -3.0566
    -3.0526  -3.0388  -3.0384  -3.0378  -3.0373  -3.0094  -2.9959  -2.9908
    -2.9876  -2.9831  -2.9733  -2.9606  -2.9521  -2.9494  -2.9439  -2.9426
    -2.9273  -2.9179  -2.9105  -2.9044  -2.8980  -2.8917  -2.8735  -2.8599
    -2.8396  -2.8326  -2.8299  -2.8282  -2.7962  -2.7741  -2.7632  -2.7410
    -2.7362  -2.6831  -2.6774  -2.6750  -2.6665  -2.6606  -2.6560  -2.5971
    -2.5894  -2.5429  -2.5384  -2.5266  -2.5231  -2.5144  -2.4764  -2.4063
    -2.3891  -2.3868  -2.3382

     the Fermi energy is    -4.6987 ev

!    total energy              =  -26031.80888536 Ry
     total all-electron energy =   -512284.378513 Ry
     estimated scf accuracy    <          2.1E-09 Ry
     smearing contrib. (-TS)   =      -0.00000004 Ry
     internal energy E=F+TS    =  -26031.80888532 Ry

     The total energy is F=E-TS. E is the sum of the following terms:
     one-electron contribution =  491524.36338775 Ry
     hartree contribution      = -245905.90137025 Ry
     xc contribution           =   -1534.65450590 Ry
     ewald contribution        = -253922.85609566 Ry
     DFT-D3 Dispersion         =      -4.02095613 Ry
     one-center paw contrib.   =  -16188.73934514 Ry

     convergence has been achieved in  11 iterations

     negative rho (up, down):  9.257E-04 0.000E+00

     Forces acting on atoms (cartesian axes, Ry/au):

     atom    1 type  1   force =    -0.00026837   -0.00005982    0.00005986
     atom    2 type  1   force =    -0.00000211    0.00000103    0.00189909
     atom    3 type  1   force =     0.00000688    0.00001186    0.00000214
     atom    4 type  2   force =    -0.00000096   -0.00000075   -0.00327939
     atom    5 type  2   force =    -0.00000116   -0.00001250    0.00001354
     atom    6 type  2   force =    -0.00042628   -0.00043256    0.00005317
     atom    7 type  2   force =    -0.00000787   -0.00000120    0.00149666
     atom    8 type  2   force =     0.00000959   -0.00000627    0.00003408
     atom    9 type  2   force =    -0.00012683   -0.00012001    0.00007062
     atom   10 type  1   force =    -0.00009117    0.00003219   -0.00033709
     atom   11 type  1   force =     0.00000092   -0.00000036    0.00189819
     atom   12 type  1   force =     0.00001245    0.00000929    0.00005511
     atom   13 type  2   force =    -0.00000118   -0.00000059   -0.00327902
     atom   14 type  2   force =    -0.00001821    0.00000133    0.00001831
     atom   15 type  2   force =    -0.00015834   -0.00017140   -0.00034095
     atom   16 type  2   force =    -0.00000186   -0.00000252    0.00151988
     atom   17 type  2   force =     0.00001800   -0.00001333    0.00005138
     atom   18 type  2   force =    -0.00004972    0.00024286   -0.00038305
     atom   19 type  1   force =    -0.00004134    0.00021020   -0.00019093
     atom   20 type  1   force =    -0.00000042   -0.00000090    0.00190295
     atom   21 type  1   force =     0.00002213   -0.00001602    0.00002607
     atom   22 type  2   force =    -0.00000120   -0.00000048   -0.00327935
     atom   23 type  2   force =     0.00000085   -0.00001928    0.00003400
     atom   24 type  2   force =    -0.00005259    0.00035742   -0.00014841
     atom   25 type  2   force =    -0.00000316   -0.00000395    0.00150382
     atom   26 type  2   force =     0.00000648    0.00000879    0.00010398
     atom   27 type  2   force =     0.00017278    0.00001251   -0.00022884
     atom   28 type  1   force =    -0.00018474    0.00010565    0.00010339
     atom   29 type  1   force =    -0.00000117    0.00000016    0.00190208
     atom   30 type  1   force =    -0.00001214   -0.00000466    0.00000493
     atom   31 type  2   force =    -0.00000106   -0.00000080   -0.00327815
     atom   32 type  2   force =    -0.00001911   -0.00001319    0.00001329
     atom   33 type  2   force =    -0.00028755   -0.00008438    0.00030435
     atom   34 type  2   force =    -0.00000995   -0.00000450    0.00150298
     atom   35 type  2   force =    -0.00001332   -0.00000134    0.00001847
     atom   36 type  2   force =    -0.00010047    0.00000708    0.00028027
     atom   37 type  1   force =     0.00016489    0.00001686   -0.00019932
     atom   38 type  1   force =    -0.00000097    0.00000067    0.00190006
     atom   39 type  1   force =     0.00001044   -0.00000369    0.00002163
     atom   40 type  2   force =    -0.00000135   -0.00000072   -0.00327890
     atom   41 type  2   force =     0.00000221    0.00000159   -0.00001227
     atom   42 type  2   force =    -0.00024926   -0.00001638   -0.00004448
     atom   43 type  2   force =    -0.00000377    0.00000695    0.00149099
     atom   44 type  2   force =     0.00001513    0.00001476    0.00000160
     atom   45 type  2   force =     0.00002615    0.00027542   -0.00025246
     atom   46 type  1   force =    -0.00016594   -0.00023485    0.00000879
     atom   47 type  1   force =    -0.00000170    0.00000134    0.00189492
     atom   48 type  1   force =    -0.00000591   -0.00001874   -0.00000561
     atom   49 type  2   force =    -0.00000113   -0.00000084   -0.00327952
     atom   50 type  2   force =    -0.00000284   -0.00000718   -0.00001340
     atom   51 type  2   force =    -0.00035068   -0.00050056   -0.00008591
     atom   52 type  2   force =     0.00000181    0.00000595    0.00148820
     atom   53 type  2   force =     0.00001653    0.00001059    0.00002126
     atom   54 type  2   force =     0.00030280    0.00042232   -0.00005698
     atom   55 type  1   force =     0.00002996   -0.00011317    0.00008512
     atom   56 type  1   force =     0.00000151   -0.00000183    0.00189273
     atom   57 type  1   force =    -0.00002261    0.00000494    0.00002476
     atom   58 type  2   force =    -0.00000131   -0.00000065   -0.00327930
     atom   59 type  2   force =    -0.00002836    0.00000352    0.00000022
     atom   60 type  2   force =    -0.00013592    0.00022799   -0.00030146
[...]
     atom  132 type  2   force =    -0.00033585    0.00036395    0.00005427
     atom  133 type  2   force =    -0.00001149   -0.00000017    0.00149086
     atom  134 type  2   force =     0.00000661   -0.00003392   -0.00002292
     atom  135 type  2   force =    -0.00015980   -0.00006168   -0.00065688
     atom  136 type  1   force =    -0.00014127   -0.00018332    0.00010529
     atom  137 type  1   force =    -0.00000490   -0.00000127    0.00189860
     atom  138 type  1   force =    -0.00000039    0.00000220   -0.00002086
     atom  139 type  2   force =    -0.00000094   -0.00000067   -0.00327925
     atom  140 type  2   force =     0.00001308    0.00001393    0.00000137
     atom  141 type  2   force =    -0.00011637   -0.00048400    0.00004007
     atom  142 type  2   force =    -0.00000831   -0.00000199    0.00149498
     atom  143 type  2   force =    -0.00001683    0.00000788    0.00001424
     atom  144 type  2   force =    -0.00020315   -0.00041085   -0.00051069
     atom  145 type  3   force =     0.00061706    0.00002482    0.00065083
     atom  146 type  4   force =     0.00064728    0.00098056   -0.00040392

     Total force =     0.003366     Total SCF correction =     0.000274
     Energy error            =      3.9E-05 Ry
     Gradient error          =      9.8E-04 Ry/Bohr

     bfgs converged in  20 scf cycles and  19 bfgs steps
     (criteria: energy <  1.0E-04 Ry, force <  1.0E-03 Ry/Bohr)

     End of BFGS Geometry Optimization

     Final energy             =  -26031.8088853564 Ry

     File ./outdir/pwscf.bfgs deleted, as requested
Begin final coordinates

ATOMIC_POSITIONS (angstrom)
Mo               1.5736457852        2.7217301731        6.0970529452
Mo               1.5769197498        0.9104407117       -6.0872367793    0   0   0
Mo               0.0002091542        1.8208748245       -0.0000766895
S                0.0000044503        0.0000077495       -7.6506323570    0   0   0
S                1.5763639830        0.9109164952       -1.5668169345
S                0.0083675402        1.8225621014        4.5166749377
S                0.0000053241        0.0000068460       -4.5222282367    0   0   0
S                1.5776475382        0.9100225770        1.5655626079
S               -0.0066379658        1.8211132425        7.6609150118
Mo              -0.0102921006        5.4629797681        6.0923945474
Mo               0.0000011799        3.6417399547       -6.0872367793    0   0   0
Mo              -1.5766800588        4.5520095220       -0.0009096581
S               -1.5769141197        2.7313069925       -7.6506323570    0   0   0
S                0.0005021213        3.6416386974       -1.5657589153
S               -1.5674415523        4.5503023554        4.5114497394
S               -1.5769132459        2.7313060890       -4.5222282367    0   0   0
S                0.0009240252        3.6422836111        1.5671465720
S               -1.5895169905        4.5495825069        7.6518769226
Mo              -1.5835391313        8.1931031893        6.0666113171
Mo              -1.5769173901        6.3730391977       -6.0872367793    0   0   0
Mo              -3.1542719494        7.2834171103       -0.0021342584
S               -3.1538326896        5.4626062355       -7.6506323570    0   0   0
S               -1.5765652131        6.3727114571       -1.5668345671
S               -3.1581067430        7.2807435710        4.5018620862
S               -3.1538318159        5.4626053320       -4.5222282367    0   0   0
S               -1.5777578947        6.3731422981        1.5646894490
S               -3.1419361865        7.2803410845        7.6443268924
Mo               3.1540763120        0.0002685265        6.0780925801
Mo              -3.1538359601        9.1043384407       -6.0872367793    0   0   0
Mo              -4.7309470226       10.0148195171       -0.0018683200
S               -4.7307512596        8.1939054785       -7.6506323570    0   0   0
S               -3.1539442076        9.1044011048       -1.5675753141
S               -4.7327988901       10.0178951580        4.5130811422
S               -4.7307503859        8.1939045750       -4.5222282367    0   0   0
S               -3.1539644040        9.1043626552        1.5645481088
S               -4.7232744867       10.0141765393        7.6481032747
Mo               4.7354028936        2.7142912150        6.0885898553
Mo               4.7307503218        0.9104407117       -6.0872367793    0   0   0
Mo               3.1536882384        1.8211175273       -0.0015566143
S                3.1538350223        0.0000077495       -7.6506323570    0   0   0
S                4.7309563820        0.9108335235       -1.5669754198
S                3.1504230936        1.8250752365        4.5178533410
S                3.1538358961        0.0000068460       -4.5222282367    0   0   0
S                4.7302016652        0.9102265328        1.5651681048
S                3.1574220240        1.8113401670        7.6553194824
Mo               3.1474198196        5.4563043077        6.1343261098
Mo               3.1538317519        3.6417399547       -6.0872367793    0   0   0
Mo               1.5773462387        4.5524459196       -0.0001687923
S                1.5769164523        2.7313069925       -7.6506323570    0   0   0
S                3.1537454421        3.6423120572       -1.5663124228
S                1.5998009991        4.5621508381        4.5614267191
S                1.5769173261        2.7313060890       -4.5222282367    0   0   0
S                3.1540174694        3.6415306659        1.5668967038
S                1.4823768328        4.4931096028        7.7384699702
Mo               1.5304996481        8.2221680307        6.0637453222
Mo               1.5769131819        6.3730391977       -6.0872367793    0   0   0
Mo               0.0002722548        7.2832428538       -0.0007571965
S               -0.0000021176        5.4626062355       -7.6506323570    0   0   0
S                1.5775075306        6.3731069755       -1.5656379279
S               -0.0139037360        7.2728496291        4.4989981412
[...]
S                6.2970777315        7.2870329084        4.5494098675
S                6.3076599001        5.4626053320       -4.5222282367    0   0   0
S                7.8840146295        6.3740171041        1.5663355902
S                6.3894635205        7.2462887015        7.6866235103
Mo               0.0038697223        0.0093185181        6.0897786329
Mo               6.3076557559        9.1043384407       -6.0872367793    0   0   0
Mo               4.7307837235       10.0144336612        0.0003218280
S                4.7307404564        8.1939054785       -7.6506323570    0   0   0
S                6.3068120240        9.1042735222       -1.5663263818
S                4.7357295405       10.0031574085        4.5440875806
S                4.7307413301        8.1939045750       -4.5222282367    0   0   0
S                6.3083766064        9.1040003558        1.5666011321
S                4.7375975984       10.0928286668        7.7103421341
Pt               3.2189364208        5.5424134690        8.9465499810
Pd               4.6919360371        8.0587280476        9.0922811999
End final coordinates

     Writing all to output data dir ./outdir/pwscf.save/ :
     XML data file, charge density, pseudopotentials, collected wavefunctions

     General routines

     Parallel routines

   This run was terminated on:   5:46:47  11Mar2024

   JOB DONE.