     Program PWSCF v.7.3 starts on 29Apr2024 at 16:31:50

     Waiting for input...
     Reading input from standard input
Warning: card &CELL ignored
Warning: card / ignored

     Current dimensions of program PWSCF are:
     Max number of different atomic species (ntypx) = 10
     Max number of k-points (npk) =  40000
     Max angular momentum in pseudopotentials (lmaxx) =  4
     file Mo.pbe-spn-kjpaw_psl.1.0.0.UPF: wavefunction(s)  4S 4D renormalized
     file S.pbe-n-kjpaw_psl.1.0.0.UPF: wavefunction(s)  3S 3P renormalized
     file Pt.pbe-spfn-kjpaw_psl.1.0.0.UPF: wavefunction(s)  5P 4F renormalized
     file Pd.pbe-spn-kjpaw_psl.1.0.0.UPF: wavefunction(s)  4S 5S 4D renormalized

     R & G space division:  proc/nbgrp/npool/nimage =      36
     Subspace diagonalization in iterative solution of the eigenvalue problem:
     one sub-group per band group will be used

     Using Slab Decomposition

     bravais-lattice index     =            0
     lattice parameter (alat)  =      23.8199  a.u.
     unit-cell volume          =   33861.0370 (a.u.)^3
     number of atoms/cell      =          195
     number of atomic types    =            4
     number of electrons       =      1732.00
     number of Kohn-Sham states=         1039
     kinetic-energy cutoff     =      77.0000  Ry
     charge density cutoff     =     539.0000  Ry
     scf convergence threshold =      1.0E-06
     mixing beta               =       0.2000
     number of iterations used =            8  plain     mixing
     energy convergence thresh.=      1.0E-04
     force convergence thresh. =      1.0E-03
     Exchange-correlation= SLA  PW   PBX  PBC
                           (   1   4   3   4   0   0   0)
     nstep                     =         1000

     Effective Screening Medium Method
     Boundary Conditions: Vacuum-Slab-Vacuum
     total charge in unit cell        =   0.0000
     grid points for fit at edges     =        4

     celldm(1)=  23.819920  celldm(2)=   0.000000  celldm(3)=   0.000000
     celldm(4)=   0.000000  celldm(5)=   0.000000  celldm(6)=   0.000000

     crystal axes: (cart. coord. in units of alat)
               a(1) = (   1.000000   0.000000   0.000000 )
               a(2) = (  -0.499999   0.866026   0.000000 )
               a(3) = (   0.000000   0.000000   2.893000 )

     reciprocal axes: (cart. coord. in units 2 pi/alat)
               b(1) = (  1.000000  0.577349  0.000000 )
               b(2) = (  0.000000  1.154700  0.000000 )
               b(3) = (  0.000000  0.000000  0.345662 )

     PseudoPot. # 1 for Mo read from file:
     ./pseudo/Mo.pbe-spn-kjpaw_psl.1.0.0.UPF
     MD5 check sum: 317bf72632116215fd98f72de1686f13
     Pseudo is Projector augmented-wave + core cor, Zval = 14.0
     Generated using 'atomic' code by A. Dal Corso  v.7.2
     Shape of augmentation charge: PSQ
     Using radial grid of 1229 points,  6 beta functions with:
                l(1) =   0
                l(2) =   0
                l(3) =   1
                l(4) =   1
                l(5) =   2
                l(6) =   2
     Q(r) pseudized with 0 coefficients

     PseudoPot. # 2 for S  read from file:
     ./pseudo/S.pbe-n-kjpaw_psl.1.0.0.UPF
     MD5 check sum: 8b7b5302570d38d5e87fed6a1065abda
     Pseudo is Projector augmented-wave + core cor, Zval =  6.0
     Generated using 'atomic' code by A. Dal Corso  v.7.2
     Shape of augmentation charge: PSQ
     Using radial grid of 1151 points,  6 beta functions with:
                l(1) =   0
                l(2) =   0
                l(3) =   1
                l(4) =   1
                l(5) =   2
                l(6) =   2
     Q(r) pseudized with 0 coefficients

     PseudoPot. # 3 for Pt read from file:
     ./pseudo/Pt.pbe-spfn-kjpaw_psl.1.0.0.UPF
     MD5 check sum: 620096ebf4e6ebacc94de60fd67efcb5
     Pseudo is Projector augmented-wave + core cor, Zval = 32.0
     Generated using 'atomic' code by A. Dal Corso  v.7.2
     Shape of augmentation charge: PSQ
     Using radial grid of 1277 points,  8 beta functions with:
                l(1) =   0
                l(2) =   0
                l(3) =   1
                l(4) =   1
                l(5) =   2
                l(6) =   2
                l(7) =   3
                l(8) =   3
     Q(r) pseudized with 0 coefficients

     PseudoPot. # 4 for Pd read from file:
     ./pseudo/Pd.pbe-spn-kjpaw_psl.1.0.0.UPF
     MD5 check sum: a60571a671f2502b8a6a4569d20a6edb
     Pseudo is Projector augmented-wave + core cor, Zval = 18.0
     Generated using 'atomic' code by A. Dal Corso  v.7.2
     Shape of augmentation charge: PSQ
     Using radial grid of 1235 points,  6 beta functions with:
                l(1) =   0
                l(2) =   0
                l(3) =   1
                l(4) =   1
                l(5) =   2
                l(6) =   2
     Q(r) pseudized with 0 coefficients

     atomic species   valence    mass     pseudopotential
     Mo               14.00    95.95000     Mo( 1.00)
     S                 6.00    32.06000     S ( 1.00)
     Pt               32.00   195.08400     Pt( 1.00)
     Pd               18.00   106.42000     Pd( 1.00)

     No symmetry found

   Cartesian axes

     site n.     atom                  positions (alat units)
         1        Mo     tau(   1) = (   0.0000010   0.1443372  -0.7272732  )
         2        Mo     tau(   2) = (   0.1249995   0.0721706  -0.2424038  )
         3        S      tau(   3) = (   0.0000015   0.1443386  -0.3667807  )
         4        S      tau(   4) = (   0.1250010   0.0721682  -0.6030489  )
         5        S      tau(   5) = (   0.1250010   0.0721683  -0.8514963  )
         6        S      tau(   6) = (   0.0000015   0.1443389  -0.1180260  )
         7        Mo     tau(   7) = (   0.0000005   0.1443381   0.2424561  )
         8        Mo     tau(   8) = (   0.1251981   0.0716023   0.7276027  )
         9        S      tau(   9) = (  -0.0003031   0.1454842   0.6052312  )
        10        S      tau(  10) = (   0.1249558   0.0721599   0.3668208  )
        11        S      tau(  11) = (   0.1250088   0.0721517   0.1180857  )
        12        S      tau(  12) = (  -0.0004157   0.1382876   0.8564685  )
        13        Mo     tau(  13) = (  -0.1249989   0.3608437  -0.7272732  )
        14        Mo     tau(  14) = (   0.0000030   0.2886752  -0.2424042  )
        15        S      tau(  15) = (  -0.1249977   0.3608450  -0.3667802  )
        16        S      tau(  16) = (   0.0000012   0.2886747  -0.6030489  )
        17        S      tau(  17) = (   0.0000012   0.2886748  -0.8514963  )
        18        S      tau(  18) = (  -0.1249977   0.3608454  -0.1180274  )
        19        Mo     tau(  19) = (  -0.1249623   0.3608201   0.2425155  )
        20        Mo     tau(  20) = (  -0.0007801   0.2872696   0.7308518  )
        21        S      tau(  21) = (  -0.1240398   0.3604107   0.6055268  )
        22        S      tau(  22) = (   0.0000411   0.2886546   0.3669163  )
        23        S      tau(  23) = (   0.0000035   0.2886726   0.1180964  )
        24        S      tau(  24) = (  -0.1315418   0.3638985   0.8543850  )
        25        Mo     tau(  25) = (  -0.2499987   0.5773502  -0.7272732  )
        26        Mo     tau(  26) = (  -0.1249977   0.5051839  -0.2424055  )
        27        S      tau(  27) = (  -0.2499981   0.5773518  -0.3667809  )
        28        S      tau(  28) = (  -0.1249986   0.5051812  -0.6030489  )
        29        S      tau(  29) = (  -0.1249986   0.5051813  -0.8514963  )
        30        S      tau(  30) = (  -0.2499979   0.5773512  -0.1180266  )
        31        Mo     tau(  31) = (  -0.2499787   0.5773156   0.2425145  )
        32        Mo     tau(  32) = (  -0.1271807   0.5060660   0.7281741  )
        33        S      tau(  33) = (  -0.2502658   0.5775034   0.6017985  )
        34        S      tau(  34) = (  -0.1249543   0.5051367   0.3669386  )
        35        S      tau(  35) = (  -0.1249864   0.5051552   0.1181399  )
        36        S      tau(  36) = (  -0.2525628   0.5785576   0.8514793  )
        37        Mo     tau(  37) = (  -0.3749985   0.7938567  -0.7272732  )
        38        Mo     tau(  38) = (  -0.2500001   0.7216874  -0.2424031  )
        39        S      tau(  39) = (  -0.3749980   0.7938584  -0.3667800  )
        40        S      tau(  40) = (  -0.2499984   0.7216877  -0.6030489  )
        41        S      tau(  41) = (  -0.2499984   0.7216878  -0.8514963  )
        42        S      tau(  42) = (  -0.3749982   0.7938585  -0.1180264  )
        43        Mo     tau(  43) = (  -0.3750043   0.7938372   0.2424536  )
        44        Mo     tau(  44) = (  -0.2503619   0.7218808   0.7263407  )
        45        S      tau(  45) = (  -0.3755748   0.7941519   0.6023691  )
        46        S      tau(  46) = (  -0.2500067   0.7216811   0.3668312  )
        47        S      tau(  47) = (  -0.2499793   0.7216445   0.1181126  )
        48        S      tau(  48) = (  -0.3746959   0.7932047   0.8515893  )
        49        Mo     tau(  49) = (   0.2500010   0.1443372  -0.7272732  )
        50        Mo     tau(  50) = (   0.3750034   0.0721723  -0.2424032  )
        51        S      tau(  51) = (   0.2500017   0.1443391  -0.3667788  )
        52        S      tau(  52) = (   0.3750010   0.0721682  -0.6030489  )
        53        S      tau(  53) = (   0.3750010   0.0721683  -0.8514963  )
        54        S      tau(  54) = (   0.2500016   0.1443391  -0.1180271  )
        55        Mo     tau(  55) = (   0.2500033   0.1443124   0.2424881  )
        56        Mo     tau(  56) = (   0.3752595   0.0716472   0.7255395  )
        57        S      tau(  57) = (   0.2498544   0.1431280   0.6011361  )
        58        S      tau(  58) = (   0.3750516   0.0721435   0.3668117  )
        59        S      tau(  59) = (   0.3750079   0.0721203   0.1180977  )
        60        S      tau(  60) = (   0.2517312   0.1427646   0.8506906  )
[...]
       181        Mo     tau( 181) = (   0.3750016   0.7938567  -0.7272732  )
       182        Mo     tau( 182) = (   0.5000025   0.7216901  -0.2424039  )
       183        S      tau( 183) = (   0.3750019   0.7938578  -0.3667793  )
       184        S      tau( 184) = (   0.5000016   0.7216877  -0.6030489  )
       185        S      tau( 185) = (   0.5000016   0.7216878  -0.8514963  )
       186        S      tau( 186) = (   0.3750020   0.7938579  -0.1180272  )
       187        Mo     tau( 187) = (   0.3749951   0.7938323   0.2424893  )
       188        Mo     tau( 188) = (   0.4998599   0.7217391   0.7271366  )
       189        S      tau( 189) = (   0.3746033   0.7939741   0.6029663  )
       190        S      tau( 190) = (   0.4999946   0.7216688   0.3668260  )
       191        S      tau( 191) = (   0.4999891   0.7216628   0.1180901  )
       192        S      tau( 192) = (   0.3755955   0.7938624   0.8526444  )
       193        Pt     tau( 193) = (   0.1194898   0.4990527   0.9549993  )
       194        Pd     tau( 194) = (   0.0026419   0.2990244   0.9662205  )
       195        Pd     tau( 195) = (   0.7487529   0.2885372   0.9812805  )

     DFT-D3 Dispersion Correction (3-body terms):
       Reference C6 values for interpolation:

[...]
   -40.6508 -40.6507 -40.6506 -40.6499 -40.6499 -40.6499 -40.6499 -40.6387
   -40.6353 -40.6214 -40.6161 -40.6161 -40.6161 -40.6161 -40.6161 -40.6161
   -40.6160 -40.6159 -40.6158 -40.6152 -40.6152 -40.6152 -40.6152 -40.6040
   -40.6039 -40.6039 -40.6038 -40.6030 -40.6030 -40.6015 -40.5922 -40.5893
   -40.5871 -40.5846 -40.5846 -40.5846 -40.5844 -40.5837 -40.5837 -40.5830
   -40.5676 -40.5676 -40.5676 -40.5675 -40.5667 -40.5667 -40.5644 -40.5638
   -40.5549 -40.5435 -40.5381 -40.5370 -40.5370 -40.5369 -40.5369 -40.5360
   -40.5360 -40.5181 -40.4911 -20.0790 -19.8907 -19.8492 -19.8316 -19.7516
   -19.7339 -19.6417 -19.6333 -19.5311 -19.4882 -19.4112 -19.4062 -19.3192
   -19.3122 -19.2154 -19.2106 -19.1752 -18.9612 -18.8369 -18.8125 -18.7693
   -18.7645 -18.7045 -18.7033 -18.7007 -18.6992 -18.6821 -18.6615 -18.6368
   -18.6335 -18.6288 -18.6253 -18.5896 -18.5685 -18.5641 -18.5391 -18.5354
   -18.5301 -18.5280 -18.5193 -18.4988 -18.4739 -18.4723 -18.4602 -18.4502
   -18.4269 -18.4089 -18.3925 -18.3917 -18.3838 -18.3676 -18.3627 -18.3381
   -18.3122 -18.3056 -18.2965 -18.2608 -18.2508 -18.2299 -18.2198 -18.1990
   -18.1883 -18.1652 -18.1541 -18.1516 -18.1239 -18.1145 -18.1029 -18.0858
   -18.0821 -18.0792 -18.0786 -18.0705 -18.0572 -18.0557 -18.0541 -18.0516
   -18.0470 -18.0434 -18.0403 -18.0363 -18.0322 -18.0251 -18.0168 -17.9932
   -17.9900 -17.9857 -17.9843 -17.9813 -17.9802 -17.9796 -17.9752 -17.9694
   -17.9626 -17.9370 -17.9289 -17.9209 -17.9172 -17.9120 -17.9078 -17.8860
   -17.8748 -17.8690 -17.8609 -17.8579 -17.8419 -17.8284 -17.8254 -17.8221
   -17.8210 -17.8001 -17.7996 -17.7993 -17.7984 -17.7981 -17.7978 -17.7866
   -17.7840 -17.7681 -17.7631 -17.7430 -17.7389 -17.7239 -17.7187 -17.7080
   -17.7049 -17.6996 -17.6992 -12.0766 -11.9329 -11.8366 -11.7105 -11.6784
   -11.6299 -11.5677 -11.5243 -11.5158 -11.5019 -11.4852 -11.4801 -11.4732
   -11.4591 -11.4524 -11.4418 -11.4068 -11.3888 -11.3724 -11.3650 -11.3533
   -11.3379 -11.3282 -11.3146 -11.3058 -11.2854 -11.2693 -11.2595 -11.2556
   -11.2485 -11.2413 -11.2392 -11.2350 -11.2302 -11.2031 -11.1893 -11.1825
   -11.1782 -11.1679 -11.1565 -11.1517 -11.1491 -11.1431 -11.1279 -11.1250
   -11.1188 -11.1141 -11.0866 -11.0661 -11.0586 -11.0453 -11.0339 -10.9963
   -10.9801 -10.9555 -10.9415 -10.9404 -10.9202 -10.8968 -10.8906 -10.8871
   -10.8660 -10.8628 -10.8399 -10.8195 -10.8174 -10.8159 -10.8121 -10.8055
   -10.7922 -10.7915 -10.7904 -10.7898 -10.7881 -10.7832 -10.7777 -10.7740
[...]
    -3.3750  -3.3586  -3.3409  -3.3322  -3.3297  -3.3256  -3.3221  -3.3174
    -3.3153  -3.3089  -3.2882  -3.2767  -3.2683  -3.2620  -3.2585  -3.2582
    -3.2568  -3.2544  -3.2493  -3.2406  -3.2291  -3.2204  -3.2174  -3.2131
    -3.2069  -3.2001  -3.1962  -3.1907  -3.1869  -3.1833  -3.1706  -3.1674
    -3.1640  -3.1586  -3.1549  -3.1467  -3.1425  -3.1402  -3.1401  -3.1297
    -3.0982  -3.0769  -3.0723  -3.0677  -3.0602  -3.0512  -3.0423  -3.0372
    -3.0130  -3.0061  -3.0037  -3.0000  -2.9998  -2.9986  -2.9964  -2.9918
    -2.9906  -2.9856  -2.9808  -2.9790  -2.9728  -2.9691  -2.9649  -2.9637
    -2.9593  -2.9581  -2.9522  -2.9510  -2.9454  -2.9415  -2.9312  -2.9254
    -2.9240  -2.9173  -2.9133  -2.9101  -2.8959  -2.8920  -2.8864  -2.8790
    -2.8718  -2.8672  -2.8624  -2.8553  -2.8493  -2.8313  -2.7836  -2.7794
    -2.7704  -2.7648  -2.7318  -2.7156  -2.7059  -2.6989  -2.6185  -2.5910
    -2.5894  -2.5796  -2.5716  -2.5564  -2.5414  -2.5265  -2.5242  -2.5169
    -2.5109  -2.5087  -2.5042  -2.5018  -2.4723  -2.4617  -2.4316  -2.3915
    -2.3800  -2.3785  -2.3706  -2.3629  -2.3609  -2.3304  -2.3267

     the Fermi energy is    -4.6778 ev

!    total energy              =  -34492.26013713 Ry
     total all-electron energy =   -677498.139824 Ry
     estimated scf accuracy    <          4.9E-09 Ry
     smearing contrib. (-TS)   =      -0.00000005 Ry
     internal energy E=F+TS    =  -34492.26013708 Ry

     The total energy is F=E-TS. E is the sum of the following terms:
     one-electron contribution = 1196686.85351704 Ry
     hartree contribution      = -598521.15983794 Ry
     xc contribution           =   -2041.78948084 Ry
     ewald contribution        = -609052.54532196 Ry
     DFT-D3 Dispersion         =      -5.46928504 Ry
     one-center paw contrib.   =  -21558.14972833 Ry

     convergence has been achieved in  10 iterations

     negative rho (up, down):  9.480E-04 0.000E+00

     Forces acting on atoms (cartesian axes, Ry/au):

     atom    1 type  1   force =     0.00000126   -0.00000006    0.00068826
     atom    2 type  1   force =     0.00002555   -0.00000639    0.00000529
     atom    3 type  2   force =     0.00000174    0.00000130    0.00000135
     atom    4 type  2   force =     0.00000020    0.00000124    0.00161517
     atom    5 type  2   force =    -0.00000012    0.00000070   -0.00235987
     atom    6 type  2   force =    -0.00000090    0.00000443    0.00002045
     atom    7 type  1   force =     0.00000076    0.00000040    0.00001777
     atom    8 type  1   force =     0.00009415   -0.00003058   -0.00014902
     atom    9 type  2   force =     0.00021359   -0.00029612   -0.00043148
     atom   10 type  2   force =     0.00000620    0.00000269    0.00002633
     atom   11 type  2   force =     0.00000608   -0.00001546    0.00002559
     atom   12 type  2   force =     0.00016171   -0.00009999   -0.00034484
     atom   13 type  1   force =     0.00000150   -0.00000050    0.00068819
     atom   14 type  1   force =    -0.00001050    0.00001260    0.00000304
     atom   15 type  2   force =     0.00000427    0.00000144    0.00000405
     atom   16 type  2   force =     0.00000038    0.00000127    0.00161531
     atom   17 type  2   force =     0.00000001    0.00000072   -0.00235996
     atom   18 type  2   force =     0.00000804    0.00000497    0.00001610
     atom   19 type  1   force =     0.00001162    0.00000338    0.00000556
     atom   20 type  1   force =    -0.00009836   -0.00009362   -0.00021318
     atom   21 type  2   force =    -0.00010694    0.00024757   -0.00011179
     atom   22 type  2   force =    -0.00001327    0.00000486    0.00002623
     atom   23 type  2   force =     0.00001011    0.00000657    0.00001455
     atom   24 type  2   force =     0.00068425    0.00002598    0.00025570
     atom   25 type  1   force =     0.00000179    0.00000020    0.00068859
     atom   26 type  1   force =     0.00000074   -0.00000745    0.00001319
     atom   27 type  2   force =     0.00000117    0.00000286    0.00000065
     atom   28 type  2   force =     0.00000033    0.00000120    0.00161531
     atom   29 type  2   force =     0.00000001    0.00000064   -0.00235986
     atom   30 type  2   force =     0.00000578   -0.00000607    0.00001412
     atom   31 type  1   force =     0.00000736   -0.00000011    0.00001731
     atom   32 type  1   force =    -0.00007701   -0.00030894    0.00002608
     atom   33 type  2   force =    -0.00000089    0.00021311   -0.00002052
     atom   34 type  2   force =     0.00000593   -0.00001015    0.00002600
     atom   35 type  2   force =     0.00000684    0.00000407    0.00001242
     atom   36 type  2   force =     0.00014928   -0.00020255   -0.00009846
     atom   37 type  1   force =     0.00000233    0.00000040    0.00068786
     atom   38 type  1   force =     0.00002699    0.00002086   -0.00000275
     atom   39 type  2   force =     0.00000031    0.00000207    0.00000459
     atom   40 type  2   force =     0.00000031    0.00000133    0.00161521
     atom   41 type  2   force =    -0.00000001    0.00000064   -0.00235981
     atom   42 type  2   force =     0.00000038    0.00000198    0.00002250
     atom   43 type  1   force =     0.00000205   -0.00000215    0.00002416
     atom   44 type  1   force =     0.00002682   -0.00002372    0.00008177
     atom   45 type  2   force =     0.00014066    0.00001187    0.00004025
     atom   46 type  2   force =     0.00001103    0.00000579    0.00000729
     atom   47 type  2   force =    -0.00000445    0.00001187    0.00002455
     atom   48 type  2   force =     0.00001672    0.00009774    0.00001435
     atom   49 type  1   force =     0.00000162    0.00000049    0.00068852
     atom   50 type  1   force =    -0.00002258   -0.00002611    0.00000075
     atom   51 type  2   force =     0.00000045    0.00000375    0.00000494
     atom   52 type  2   force =     0.00000005    0.00000119    0.00161542
     atom   53 type  2   force =    -0.00000008    0.00000080   -0.00235985
     atom   54 type  2   force =    -0.00000083    0.00000205    0.00001635
     atom   55 type  1   force =    -0.00000462   -0.00000788    0.00001568
     atom   56 type  1   force =     0.00004873   -0.00005352   -0.00002422
     atom   57 type  2   force =     0.00007204    0.00010880    0.00008946
     atom   58 type  2   force =     0.00000297    0.00000040    0.00002044
     atom   59 type  2   force =    -0.00001375   -0.00000896    0.00001538
     atom   60 type  2   force =     0.00001164   -0.00007393   -0.00002847
[...]
     atom  181 type  1   force =     0.00000165    0.00000035    0.00068877
     atom  182 type  1   force =    -0.00000938   -0.00000951    0.00000482
     atom  183 type  2   force =    -0.00000155   -0.00000058    0.00000433
     atom  184 type  2   force =     0.00000019    0.00000119    0.00161530
     atom  185 type  2   force =     0.00000002    0.00000068   -0.00235978
     atom  186 type  2   force =    -0.00000087    0.00000061    0.00001196
     atom  187 type  1   force =    -0.00000115    0.00000535    0.00000764
     atom  188 type  1   force =     0.00004617    0.00007433    0.00003779
     atom  189 type  2   force =     0.00005571    0.00009808    0.00008982
     atom  190 type  2   force =    -0.00001092   -0.00000293    0.00001052
     atom  191 type  2   force =     0.00001236    0.00000702    0.00001743
     atom  192 type  2   force =    -0.00009161    0.00024143   -0.00010952
     atom  193 type  3   force =     0.00035119    0.00022393    0.00009802
     atom  194 type  4   force =    -0.00073234    0.00082083    0.00013287
     atom  195 type  4   force =     0.00083423    0.00032178    0.00002584

     Total force =     0.002671     Total SCF correction =     0.000362
     SCF correction compared to forces is large: reduce conv_thr to get better values
     Energy error            =      1.5E-05 Ry
     Gradient error          =      8.3E-04 Ry/Bohr

     bfgs converged in  23 scf cycles and  22 bfgs steps
     (criteria: energy <  1.0E-04 Ry, force <  1.0E-03 Ry/Bohr)

     End of BFGS Geometry Optimization

     Final energy             =  -34492.2601371262 Ry

     File ./outdir/pwscf.bfgs deleted, as requested
Begin final coordinates

ATOMIC_POSITIONS (angstrom)
Mo               0.0000119917        1.8193638619       -9.1672481230    0   0   0
Mo               1.5756136568        0.9097075315       -3.0554901653    0   0   0
S                0.0000188998        1.8193822938       -4.6232556019    0   0   0
S                1.5756321638        0.9096773839       -7.6014065489    0   0   0
S                1.5756326175        0.9096785128      -10.7330757790    0   0   0
S                0.0000189190        1.8193860094       -1.4877129945    0   0   0
Mo              -0.0001942409        1.8192938145        3.0579969501
Mo               1.5743287726        0.9033748662        9.1659788575
S               -0.0071577303        1.8116578314        7.6062697302
S                1.5755441183        0.9093334565        4.6244810474
S                1.5754063450        0.9098506948        1.4895854916
S               -0.0069608895        1.7716812724       10.7726473429
Mo              -1.5756053507        4.5484193819       -9.1672481230    0   0   0
Mo               0.0000378379        3.6387394919       -3.0554952701    0   0   0
S               -1.5755913433        4.5484363582       -4.6232494962    0   0   0
S                0.0000148214        3.6387329039       -7.6014065489    0   0   0
S                0.0000152751        3.6387340328      -10.7330757790    0   0   0
S               -1.5755906502        4.5484413613       -1.4877305502    0   0   0
Mo              -1.5754100565        4.5481250551        3.0584114878
Mo               0.0076110840        3.6153458173        9.1714239059
S               -1.5894169449        4.5445088521        7.6393105502
S                0.0003034633        3.6386745290        4.6267844146
S               -0.0001060437        3.6385246870        1.4903205153
S               -1.5344241995        4.6432089880       10.7399675268
Mo              -3.1512226931        7.2774749019       -9.1672481230    0   0   0
Mo              -1.5755910988        6.3678216792       -3.0555115988    0   0   0
S               -3.1512162438        7.2774954350       -4.6232578178    0   0   0
S               -1.5756025210        6.3677884239       -7.6014065489    0   0   0
S               -1.5756020673        6.3677895528      -10.7330757790    0   0   0
S               -3.1512127704        7.2774877076       -1.4877200710    0   0   0
Mo              -3.1511683059        7.2769798462        3.0580433759
Mo              -1.5954443584        6.4090235356        9.1562306594
S               -3.1696841082        7.2856179838        7.5768193743
S               -1.5751366601        6.3675638744        4.6263532958
S               -1.5755773921        6.3672965643        1.4903533145
S               -3.1728690252        7.2993611789       10.7264342081
Mo              -4.7268400355       10.0065304219       -9.1672481230    0   0   0
Mo              -3.1512405618        9.0968403586       -3.0554816746    0   0   0
S               -4.7268341792       10.0065523623       -4.6232463762    0   0   0
S               -3.1512198634        9.0968439439       -7.6014065489    0   0   0
S               -3.1512194097        9.0968450728      -10.7330757790    0   0   0
S               -4.7268370797       10.0065537885       -1.4877176751    0   0   0
Mo              -4.7269491983       10.0062696108        3.0568143501
Mo              -3.1581302087        9.1036825995        9.1502034414
S               -4.7382809530       10.0096276770        7.5883012892
S               -3.1512750039        9.0970550479        4.6244292280
S               -3.1510423471        9.0961636473        1.4895435208
S               -4.7253606274       10.0021112967       10.7292286132
Mo               3.1512517547        1.8193638619       -9.1672481230    0   0   0
Mo               4.7269020221        0.9097289540       -3.0554823951    0   0   0
S                3.1512612351        1.8193882564       -4.6232320683    0   0   0
S                4.7268719268        0.9096773839       -7.6014065489    0   0   0
S                4.7268723805        0.9096785128      -10.7330757790    0   0   0
S                3.1512592485        1.8193890201       -1.4877261251    0   0   0
Mo               3.1514689064        1.8191965499        3.0573734720
Mo               4.7272949670        0.9053108966        9.1474722629
S                3.1496322505        1.8071429736        7.5772830470
S                4.7276083428        0.9095830297        4.6245609830
S                4.7271995972        0.9095511391        1.4894502436
S                3.1666233635        1.7979410353       10.7226069557
[...]
Mo               4.7268792535       10.0065304219       -9.1672481230    0   0   0
Mo               6.3025111524        9.0968738021       -3.0554915260    0   0   0
S                4.7268840634       10.0065452125       -4.6232380477    0   0   0
S                6.3024994256        9.0968439439       -7.6014065489    0   0   0
S                6.3024998793        9.0968450728      -10.7330757790    0   0   0
S                4.7268847312       10.0065459141       -1.4877283294    0   0   0
Mo               4.7267897472       10.0061007244        3.0576528910
Mo               6.2986495789        9.0934992649        9.1633087220
S                4.7173311359        9.9981535981        7.5974988183
S                6.3025966421        9.0964089762        4.6248536275
S                6.3022505283        9.0963589165        1.4894966022
S                4.7378083352        9.9933092607       10.7478239636
Pt               1.4821504886        6.2616673290       12.0250930571
Pd              -0.0407110183        3.7807537022       12.2980404170
Pd               9.5770217270        3.6479823060       12.1304379035
End final coordinates

     Writing all to output data dir ./outdir/pwscf.save/ :
     XML data file, charge density, pseudopotentials, collected wavefunctions

     General routines

     Parallel routines

   This run was terminated on:  17:43: 9   1May2024

   JOB DONE.