     Program PWSCF v.7.2 starts on 29Aug2023 at  4: 9:33

     Waiting for input...
     Reading input from standard input
Warning: card &CELL ignored
Warning: card / ignored

     Current dimensions of program PWSCF are:
     Max number of different atomic species (ntypx) = 10
     Max number of k-points (npk) =  40000
     Max angular momentum in pseudopotentials (lmaxx) =  4
     file Mo.pbe-spn-kjpaw_psl.1.0.0.UPF: wavefunction(s)  4S 4D renormalized
     file S.pbe-n-kjpaw_psl.1.0.0.UPF: wavefunction(s)  3S 3P renormalized
     file Pd.pbe-spn-kjpaw_psl.1.0.0.UPF: wavefunction(s)  4S 5S 4D renormalized
     file H.pbe-kjpaw_psl.1.0.0.UPF: wavefunction(s)  1S renormalized

     R & G space division:  proc/nbgrp/npool/nimage =      36
     Subspace diagonalization in iterative solution of the eigenvalue problem:
     one sub-group per band group will be used

     Using Slab Decomposition

     bravais-lattice index     =            0
     lattice parameter (alat)  =      23.8199  a.u.
     unit-cell volume          =   33861.0370 (a.u.)^3
     number of atoms/cell      =          194
     number of atomic types    =            4
     number of electrons       =      1683.00
     number of Kohn-Sham states=         1010
     kinetic-energy cutoff     =      77.0000  Ry
     charge density cutoff     =     539.0000  Ry
     scf convergence threshold =      1.0E-06
     mixing beta               =       0.2000
     number of iterations used =            8  plain     mixing
     energy convergence thresh.=      1.0E-04
     force convergence thresh. =      1.0E-03
     Exchange-correlation= SLA  PW   PBX  PBC
                           (   1   4   3   4   0   0   0)
     nstep                     =         1000

     Effective Screening Medium Method
     Boundary Conditions: Vacuum-Slab-Vacuum
     total charge in unit cell        =   0.0000
     grid points for fit at edges     =        4

     celldm(1)=  23.819920  celldm(2)=   0.000000  celldm(3)=   0.000000
     celldm(4)=   0.000000  celldm(5)=   0.000000  celldm(6)=   0.000000

     crystal axes: (cart. coord. in units of alat)
               a(1) = (   1.000000   0.000000   0.000000 )
               a(2) = (  -0.499999   0.866026   0.000000 )
               a(3) = (   0.000000   0.000000   2.893000 )

     reciprocal axes: (cart. coord. in units 2 pi/alat)
               b(1) = (  1.000000  0.577349  0.000000 )
               b(2) = (  0.000000  1.154700  0.000000 )
               b(3) = (  0.000000  0.000000  0.345662 )

     PseudoPot. # 1 for Mo read from file:
     ./pseudo/Mo.pbe-spn-kjpaw_psl.1.0.0.UPF
     MD5 check sum: 317bf72632116215fd98f72de1686f13
     Pseudo is Projector augmented-wave + core cor, Zval = 14.0
     Generated using 'atomic' code by A. Dal Corso  v.7.2
     Shape of augmentation charge: PSQ
     Using radial grid of 1229 points,  6 beta functions with:
                l(1) =   0
                l(2) =   0
                l(3) =   1
                l(4) =   1
                l(5) =   2
                l(6) =   2
     Q(r) pseudized with 0 coefficients

     PseudoPot. # 2 for S  read from file:
     ./pseudo/S.pbe-n-kjpaw_psl.1.0.0.UPF
     MD5 check sum: 8b7b5302570d38d5e87fed6a1065abda
     Pseudo is Projector augmented-wave + core cor, Zval =  6.0
     Generated using 'atomic' code by A. Dal Corso  v.7.2
     Shape of augmentation charge: PSQ
     Using radial grid of 1151 points,  6 beta functions with:
                l(1) =   0
                l(2) =   0
                l(3) =   1
                l(4) =   1
                l(5) =   2
                l(6) =   2
     Q(r) pseudized with 0 coefficients

     PseudoPot. # 3 for Pd read from file:
     ./pseudo/Pd.pbe-spn-kjpaw_psl.1.0.0.UPF
     MD5 check sum: a60571a671f2502b8a6a4569d20a6edb
     Pseudo is Projector augmented-wave + core cor, Zval = 18.0
     Generated using 'atomic' code by A. Dal Corso  v.7.2
     Shape of augmentation charge: PSQ
     Using radial grid of 1235 points,  6 beta functions with:
                l(1) =   0
                l(2) =   0
                l(3) =   1
                l(4) =   1
                l(5) =   2
                l(6) =   2
     Q(r) pseudized with 0 coefficients

     PseudoPot. # 4 for H  read from file:
     ./pseudo/H.pbe-kjpaw_psl.1.0.0.UPF
     MD5 check sum: b3cb3c48ee3b58cc53e4d592112d0ca6
     Pseudo is Projector augmented-wave, Zval =  1.0
     Generated using 'atomic' code by A. Dal Corso  v.7.2
     Shape of augmentation charge: PSQ
     Using radial grid of  929 points,  2 beta functions with:
                l(1) =   0
                l(2) =   0
     Q(r) pseudized with 0 coefficients

     atomic species   valence    mass     pseudopotential
        Mo            14.00    95.95000     Mo( 1.00)
        S              6.00    32.06000     S ( 1.00)
        Pd            18.00   106.42000     Pd( 1.00)
        H              1.00     1.00800     H ( 1.00)

     No symmetry found

   Cartesian axes

     site n.     atom                  positions (alat units)
         1           Mo  tau(   1) = (   0.0000010   0.1443372  -0.7272732  )
         2           Mo  tau(   2) = (   0.1249995   0.0721706  -0.2424038  )
         3           S   tau(   3) = (   0.0000015   0.1443386  -0.3667807  )
         4           S   tau(   4) = (   0.1250010   0.0721682  -0.6030489  )
         5           S   tau(   5) = (   0.1250010   0.0721683  -0.8514963  )
         6           S   tau(   6) = (   0.0000015   0.1443389  -0.1180260  )
         7           Mo  tau(   7) = (   0.0000007   0.1443589   0.2424205  )
         8           Mo  tau(   8) = (   0.1250041   0.0720322   0.7266168  )
         9           S   tau(   9) = (   0.0000742   0.1444871   0.6020949  )
        10           S   tau(  10) = (   0.1250024   0.0721701   0.3667478  )
        11           S   tau(  11) = (   0.1250035   0.0721876   0.1180348  )
        12           S   tau(  12) = (  -0.0004118   0.1430864   0.8514340  )
        13           Mo  tau(  13) = (  -0.1249989   0.3608437  -0.7272732  )
        14           Mo  tau(  14) = (   0.0000030   0.2886752  -0.2424042  )
        15           S   tau(  15) = (  -0.1249977   0.3608450  -0.3667802  )
        16           S   tau(  16) = (   0.0000012   0.2886747  -0.6030489  )
        17           S   tau(  17) = (   0.0000012   0.2886748  -0.8514963  )
        18           S   tau(  18) = (  -0.1249977   0.3608454  -0.1180274  )
        19           Mo  tau(  19) = (  -0.1249729   0.3608584   0.2424608  )
        20           Mo  tau(  20) = (  -0.0007193   0.2876626   0.7275440  )
        21           S   tau(  21) = (  -0.1251115   0.3607789   0.6027257  )
        22           S   tau(  22) = (   0.0000621   0.2887099   0.3668377  )
        23           S   tau(  23) = (  -0.0000096   0.2886902   0.1180527  )
        24           S   tau(  24) = (  -0.1254673   0.3605734   0.8517408  )
        25           Mo  tau(  25) = (  -0.2499987   0.5773502  -0.7272732  )
        26           Mo  tau(  26) = (  -0.1249977   0.5051839  -0.2424055  )
        27           S   tau(  27) = (  -0.2499981   0.5773518  -0.3667809  )
        28           S   tau(  28) = (  -0.1249986   0.5051812  -0.6030489  )
        29           S   tau(  29) = (  -0.1249986   0.5051813  -0.8514963  )
        30           S   tau(  30) = (  -0.2499979   0.5773512  -0.1180266  )
        31           Mo  tau(  31) = (  -0.2499795   0.5773389   0.2424205  )
        32           Mo  tau(  32) = (  -0.1262356   0.5050639   0.7275441  )
        33           S   tau(  33) = (  -0.2498323   0.5773390   0.6020948  )
        34           S   tau(  34) = (  -0.1249376   0.5052159   0.3668377  )
        35           S   tau(  35) = (  -0.1249905   0.5051638   0.1180531  )
        36           S   tau(  36) = (  -0.2512883   0.5776183   0.8514340  )
        37           Mo  tau(  37) = (  -0.3749985   0.7938567  -0.7272732  )
        38           Mo  tau(  38) = (  -0.2500001   0.7216874  -0.2424031  )
        39           S   tau(  39) = (  -0.3749980   0.7938584  -0.3667800  )
        40           S   tau(  40) = (  -0.2499984   0.7216877  -0.6030489  )
        41           S   tau(  41) = (  -0.2499984   0.7216878  -0.8514963  )
        42           S   tau(  42) = (  -0.3749982   0.7938585  -0.1180264  )
        43           Mo  tau(  43) = (  -0.3749962   0.7938568   0.2423838  )
        44           Mo  tau(  44) = (  -0.2501148   0.7217588   0.7266170  )
        45           S   tau(  45) = (  -0.3749945   0.7938590   0.6021274  )
        46           S   tau(  46) = (  -0.2499958   0.7216877   0.3667488  )
        47           S   tau(  47) = (  -0.2499810   0.7216794   0.1180323  )
        48           S   tau(  48) = (  -0.3749953   0.7938585   0.8511588  )
        49           Mo  tau(  49) = (   0.2500010   0.1443372  -0.7272732  )
        50           Mo  tau(  50) = (   0.3750034   0.0721723  -0.2424032  )
        51           S   tau(  51) = (   0.2500017   0.1443391  -0.3667788  )
        52           S   tau(  52) = (   0.3750010   0.0721682  -0.6030489  )
        53           S   tau(  53) = (   0.3750010   0.0721683  -0.8514963  )
        54           S   tau(  54) = (   0.2500016   0.1443391  -0.1180271  )
        55           Mo  tau(  55) = (   0.2500054   0.1443594   0.2424211  )
        56           Mo  tau(  56) = (   0.3749279   0.0721263   0.7263991  )
        57           S   tau(  57) = (   0.2499344   0.1444864   0.6020948  )
        58           S   tau(  58) = (   0.3750316   0.0721860   0.3667597  )
        59           S   tau(  59) = (   0.3749924   0.0721644   0.1180346  )
        60           S   tau(  60) = (   0.2504199   0.1430865   0.8514340  )
[...]
       180           S   tau( 180) = (   0.5012979   0.5776190   0.8514332  )
       181           Mo  tau( 181) = (   0.3750016   0.7938567  -0.7272732  )
       182           Mo  tau( 182) = (   0.5000025   0.7216901  -0.2424039  )
       183           S   tau( 183) = (   0.3750019   0.7938578  -0.3667793  )
       184           S   tau( 184) = (   0.5000016   0.7216877  -0.6030489  )
       185           S   tau( 185) = (   0.5000016   0.7216878  -0.8514963  )
       186           S   tau( 186) = (   0.3750020   0.7938579  -0.1180272  )
       187           Mo  tau( 187) = (   0.3749848   0.7938487   0.2424206  )
       188           Mo  tau( 188) = (   0.5001249   0.7217591   0.7266160  )
       189           S   tau( 189) = (   0.3749125   0.7937251   0.6020942  )
       190           S   tau( 190) = (   0.5000021   0.7216868   0.3667472  )
       191           S   tau( 191) = (   0.4999874   0.7216780   0.1180346  )
       192           S   tau( 192) = (   0.3758826   0.7948451   0.8514332  )
       193           Pd  tau( 193) = (   0.1250063   0.5051842   0.9601361  )
       194           H   tau( 194) = (   0.2504570   0.1431183   0.9624784  )

     DFT-D3 Dispersion Correction (3-body terms):
       Reference C6 values for interpolation:

         atom   Coordination number   C6
         H          0.912             6.05
         H          0.000            15.18
         S          0.000           268.01
[...]
     atom   14 type  1   force =     0.00000000    0.00000000    0.00000000
     atom   15 type  2   force =     0.00000000    0.00000000    0.00000000
     atom   16 type  2   force =     0.00000000    0.00000000    0.00000000
     atom   17 type  2   force =     0.00000000    0.00000000    0.00000000
     atom   18 type  2   force =     0.00000000    0.00000000    0.00000000
     atom   19 type  1   force =    -0.00001335    0.00000871   -0.00002676
     atom   20 type  1   force =    -0.00001835    0.00000323   -0.00002898
     atom   21 type  2   force =     0.00000005   -0.00000083   -0.00000806
     atom   22 type  2   force =     0.00000075    0.00000254   -0.00000509
     atom   23 type  2   force =     0.00000236    0.00000252   -0.00000533
     atom   24 type  2   force =    -0.00000198    0.00000523   -0.00000474
     atom   25 type  1   force =     0.00000000    0.00000000    0.00000000
     atom   26 type  1   force =     0.00000000    0.00000000    0.00000000
     atom   27 type  2   force =     0.00000000    0.00000000    0.00000000
     atom   28 type  2   force =     0.00000000    0.00000000    0.00000000
     atom   29 type  2   force =     0.00000000    0.00000000    0.00000000
     atom   30 type  2   force =     0.00000000    0.00000000    0.00000000
     atom   31 type  1   force =     0.00000264   -0.00001736   -0.00003292
     atom   32 type  1   force =    -0.00000955    0.00000452    0.00000501
     atom   33 type  2   force =     0.00000063   -0.00000167   -0.00000628
     atom   34 type  2   force =     0.00000040   -0.00000175   -0.00000647
     atom   35 type  2   force =    -0.00000295   -0.00000281   -0.00000670
     atom   36 type  2   force =     0.00000340   -0.00000434   -0.00000762
     atom   37 type  1   force =     0.00000000    0.00000000    0.00000000
     atom   38 type  1   force =     0.00000000    0.00000000    0.00000000
     atom   39 type  2   force =     0.00000000    0.00000000    0.00000000
     atom   40 type  2   force =     0.00000000    0.00000000    0.00000000
     atom   41 type  2   force =     0.00000000    0.00000000    0.00000000
     atom   42 type  2   force =     0.00000000    0.00000000    0.00000000
     atom   43 type  1   force =     0.00001219    0.00000737   -0.00002824
     atom   44 type  1   force =     0.00002107   -0.00001940   -0.00000863
     atom   45 type  2   force =     0.00000710   -0.00000703   -0.00001224
     atom   46 type  2   force =     0.00000279    0.00000004   -0.00000490
     atom   47 type  2   force =     0.00000283    0.00000007   -0.00000774
     atom   48 type  2   force =     0.00000556   -0.00000776   -0.00000125
     atom   49 type  1   force =     0.00000000    0.00000000    0.00000000
     atom   50 type  1   force =     0.00000000    0.00000000    0.00000000
     atom   51 type  2   force =     0.00000000    0.00000000    0.00000000
     atom   52 type  2   force =     0.00000000    0.00000000    0.00000000
     atom   53 type  2   force =     0.00000000    0.00000000    0.00000000
     atom   54 type  2   force =     0.00000000    0.00000000    0.00000000
     atom   55 type  1   force =     0.00001091    0.00000637   -0.00002392
     atom   56 type  1   force =     0.00002502    0.00000803   -0.00004325
     atom   57 type  2   force =     0.00001011    0.00000908   -0.00000462
     atom   58 type  2   force =     0.00000565    0.00000247   -0.00001569
     atom   59 type  2   force =     0.00000216    0.00000162    0.00000025
     atom   60 type  2   force =     0.00001074    0.00000558   -0.00000399
[...]
     atom  180 type  2   force =     0.00000129   -0.00000946   -0.00000474
     atom  181 type  1   force =     0.00000000    0.00000000    0.00000000
     atom  182 type  1   force =     0.00000000    0.00000000    0.00000000
     atom  183 type  2   force =     0.00000000    0.00000000    0.00000000
     atom  184 type  2   force =     0.00000000    0.00000000    0.00000000
     atom  185 type  2   force =     0.00000000    0.00000000    0.00000000
     atom  186 type  2   force =     0.00000000    0.00000000    0.00000000
     atom  187 type  1   force =     0.00000241    0.00000590   -0.00003322
     atom  188 type  1   force =     0.00001658   -0.00001681    0.00000401
     atom  189 type  2   force =    -0.00000323    0.00000128   -0.00001374
     atom  190 type  2   force =     0.00000515   -0.00000255   -0.00000466
     atom  191 type  2   force =     0.00000137    0.00000037   -0.00001207
     atom  192 type  2   force =    -0.00000529    0.00000004    0.00000321
     atom  193 type  3   force =     0.00000149   -0.00010074   -0.00007179
     atom  194 type  4   force =     0.00000068    0.00000049    0.00000055

     DFT-D3 dispersion contribution to forces:
     atom    1 type  1   force =     0.00000001    0.00000003    0.00255978
     atom    2 type  1   force =     0.00000033    0.00000023    0.00001530
     atom    3 type  2   force =     0.00000003   -0.00000001   -0.00003303
     atom    4 type  2   force =    -0.00000001   -0.00000001    0.00017154
     atom    5 type  2   force =    -0.00000000   -0.00000003    0.00441519
     atom    6 type  2   force =     0.00000061    0.00000028    0.00009745
     atom    7 type  1   force =    -0.00000071   -0.00000893   -0.00000795
     atom    8 type  1   force =     0.00007272    0.00012663   -0.00229257
     atom    9 type  2   force =     0.00000819   -0.00000346   -0.00011465
     atom   10 type  2   force =    -0.00000069   -0.00001894    0.00002592
     atom   11 type  2   force =    -0.00000016   -0.00000058   -0.00009462
     atom   12 type  2   force =     0.00026433    0.00024855   -0.00424505
     atom   13 type  1   force =     0.00000003    0.00000001    0.00255982
     atom   14 type  1   force =     0.00000027   -0.00000001    0.00001506
     atom   15 type  2   force =    -0.00000000   -0.00000000   -0.00003301
     atom   16 type  2   force =     0.00000001    0.00000000    0.00017156
     atom   17 type  2   force =    -0.00000001    0.00000001    0.00441513
     atom   18 type  2   force =     0.00000027    0.00000012    0.00009715
     atom   19 type  1   force =    -0.00001248   -0.00000599   -0.00001983
     atom   20 type  1   force =     0.00017811    0.00019269   -0.00219553
     atom   21 type  2   force =     0.00002145    0.00001421   -0.00007716
     atom   22 type  2   force =    -0.00000037   -0.00002027    0.00003375
     atom   23 type  2   force =     0.00000087   -0.00000095   -0.00009846
     atom   24 type  2   force =     0.00036291    0.00021099   -0.00422265
     atom   25 type  1   force =     0.00000003   -0.00000001    0.00255978
     atom   26 type  1   force =     0.00000009   -0.00000006    0.00001475
     atom   27 type  2   force =     0.00000001    0.00000000   -0.00003308
     atom   28 type  2   force =     0.00000001    0.00000000    0.00017155
     atom   29 type  2   force =     0.00000000   -0.00000001    0.00441514
     atom   30 type  2   force =     0.00000016   -0.00000001    0.00009708
     atom   31 type  1   force =    -0.00000900   -0.00000008   -0.00000894
     atom   32 type  1   force =     0.00024977   -0.00000595   -0.00223392
     atom   33 type  2   force =    -0.00000078    0.00000871   -0.00011995
     atom   34 type  2   force =    -0.00001874    0.00000474    0.00002600
     atom   35 type  2   force =    -0.00000017    0.00000051   -0.00009872
     atom   36 type  2   force =     0.00027768   -0.00004858   -0.00430200
     atom   37 type  1   force =    -0.00000000    0.00000000    0.00255982
     atom   38 type  1   force =     0.00000005    0.00000028    0.00001492
     atom   39 type  2   force =     0.00000002    0.00000003   -0.00003300
     atom   40 type  2   force =    -0.00000001    0.00000000    0.00017153
     atom   41 type  2   force =    -0.00000003    0.00000002    0.00441520
     atom   42 type  2   force =     0.00000051    0.00000050    0.00009753
     atom   43 type  1   force =     0.00000083    0.00000277    0.00000468
     atom   44 type  1   force =     0.00007564    0.00002175   -0.00240534
     atom   45 type  2   force =     0.00000233   -0.00000153   -0.00014339
     atom   46 type  2   force =    -0.00001565    0.00001401    0.00003605
     atom   47 type  2   force =    -0.00000035    0.00000105   -0.00009533
     atom   48 type  2   force =     0.00007555    0.00015323   -0.00433566
     atom   49 type  1   force =    -0.00000001    0.00000004    0.00255977
     atom   50 type  1   force =    -0.00000027    0.00000020    0.00001539
     atom   51 type  2   force =    -0.00000002   -0.00000002   -0.00003291
     atom   52 type  2   force =     0.00000001    0.00000001    0.00017157
     atom   53 type  2   force =    -0.00000000    0.00000000    0.00441518
     atom   54 type  2   force =     0.00000001    0.00000010    0.00009711
     atom   55 type  1   force =     0.00000397   -0.00000853   -0.00000545
     atom   56 type  1   force =    -0.00008211    0.00003147   -0.00231095
     atom   57 type  2   force =    -0.00000823   -0.00000383   -0.00010688
     atom   58 type  2   force =    -0.00000015   -0.00000120    0.00003146
     atom   59 type  2   force =    -0.00000017   -0.00000034   -0.00009426
     atom   60 type  2   force =    -0.00009241    0.00025909   -0.00429659
[...]
     atom  180 type  2   force =    -0.00028310   -0.00004652   -0.00431269
     atom  181 type  1   force =    -0.00000003   -0.00000003    0.00255979
     atom  182 type  1   force =    -0.00000001    0.00000011    0.00001457
     atom  183 type  2   force =    -0.00000002   -0.00000002   -0.00003306
     atom  184 type  2   force =     0.00000001    0.00000001    0.00017155
     atom  185 type  2   force =     0.00000003    0.00000002    0.00441521
     atom  186 type  2   force =     0.00000003    0.00000006    0.00009674
     atom  187 type  1   force =     0.00000407    0.00000644   -0.00000315
     atom  188 type  1   force =    -0.00007897   -0.00003030   -0.00243696
     atom  189 type  2   force =     0.00000613   -0.00000482   -0.00011878
     atom  190 type  2   force =     0.00001311    0.00000947    0.00003575
     atom  191 type  2   force =     0.00000095    0.00000025   -0.00009608
     atom  192 type  2   force =    -0.00017533   -0.00021063   -0.00431237
     atom  193 type  3   force =     0.00000946   -0.00011480    0.00095610
     atom  194 type  4   force =    -0.00002521    0.00006261   -0.00138603

     Total force =     0.002903     Total SCF correction =     0.000235
     Energy error            =      2.3E-05 Ry
     Gradient error          =      9.1E-04 Ry/Bohr

     bfgs converged in   9 scf cycles and   8 bfgs steps
     (criteria: energy <  1.0E-04 Ry, force <  1.0E-03 Ry/Bohr)

     End of BFGS Geometry Optimization

     Final energy             =  -32306.6999651468 Ry

     File ./outdir/pwscf.bfgs deleted, as requested
Begin final coordinates

ATOMIC_POSITIONS (angstrom)
Mo            0.0000119917        1.8193638619       -9.1672481230    0   0   0
Mo            1.5756136568        0.9097075315       -3.0554901653    0   0   0
S             0.0000188998        1.8193822938       -4.6232556019    0   0   0
S             1.5756321638        0.9096773839       -7.6014065489    0   0   0
S             1.5756326175        0.9096785128      -10.7330757790    0   0   0
S             0.0000189190        1.8193860094       -1.4877129945    0   0   0
Mo            0.0009571014        1.8199159350        3.0556486984
Mo            1.5815530863        0.9117910465        9.1671664309
S             0.0040993383        1.8158573654        7.5939036797
S             1.5761024221        0.9100224255        4.6243549959
S             1.5764011996        0.9102273991        1.4873299647
S            -0.0220077532        1.8054951084       10.7375579979
Mo           -1.5756053507        4.5484193819       -9.1672481230    0   0   0
Mo            0.0000378379        3.6387394919       -3.0554952701    0   0   0
S            -1.5755913433        4.5484363582       -4.6232494962    0   0   0
S             0.0000148214        3.6387329039       -7.6014065489    0   0   0
S             0.0000152751        3.6387340328      -10.7330757790    0   0   0
S            -1.5755906502        4.5484413613       -1.4877305502    0   0   0
Mo           -1.5756508587        4.5487628365        3.0564155286
Mo           -0.0058140975        3.6255957801        9.1721614094
S            -1.5705183845        4.5475815933        7.5957437332
S             0.0006597240        3.6391741628        4.6249783689
S            -0.0002825650        3.6390781328        1.4880597853
S            -1.5800469463        4.5458455084       10.7346291259
Mo           -3.1512226931        7.2774749019       -9.1672481230    0   0   0
Mo           -1.5755910988        6.3678216792       -3.0555115988    0   0   0
S            -3.1512162438        7.2774954350       -4.6232578178    0   0   0
S            -1.5756025210        6.3677884239       -7.6014065489    0   0   0
S            -1.5756020673        6.3677895528      -10.7330757790    0   0   0
S            -3.1512127704        7.2774877076       -1.4877200710    0   0   0
Mo           -3.1509742222        7.2769805860        3.0560057609
Mo           -1.5893418508        6.3676791182        9.1703762680
S            -3.1487512927        7.2795987691        7.5875767932
S            -1.5749513260        6.3679753290        4.6243614002
S            -1.5753912567        6.3676894788        1.4879257280
S            -3.1669007316        7.2813302891       10.7316965985
Mo           -4.7268400355       10.0065304219       -9.1672481230    0   0   0
Mo           -3.1512405618        9.0968403586       -3.0554816746    0   0   0
S            -4.7268341792       10.0065523623       -4.6232463762    0   0   0
S            -3.1512198634        9.0968439439       -7.6014065489    0   0   0
S            -3.1512194097        9.0968450728      -10.7330757790    0   0   0
S            -4.7268370797       10.0065537885       -1.4877176751    0   0   0
Mo           -4.7262254601       10.0072180629        3.0556080988
Mo           -3.1528498248        9.0989933159        9.1583454790
S            -4.7302881598       10.0134271245        7.5920626345
S            -3.1510783565        9.0969576054        4.6241538133
S            -3.1510638029        9.0965902606        1.4880682846
S            -4.7339133620        9.9906517167       10.7312559243
Mo            3.1512517547        1.8193638619       -9.1672481230    0   0   0
Mo            4.7269020221        0.9097289540       -3.0554823951    0   0   0
S             3.1512612351        1.8193882564       -4.6232320683    0   0   0
S             4.7268719268        0.9096773839       -7.6014065489    0   0   0
S             4.7268723805        0.9096785128      -10.7330757790    0   0   0
S             3.1512592485        1.8193890201       -1.4877261251    0   0   0
Mo            3.1514758650        1.8194839785        3.0567103293
Mo            4.7201915285        0.9133869814        9.1684498795
S             3.1527802194        1.8201980609        7.5737197392
S             4.7266147542        0.9100711639        4.6244368602
S             4.7261070534        0.9100451714        1.4870109340
S             3.1549468951        1.8054804913       10.6979443355
[...]
S             6.3206630015        7.2803055664       10.7348283129
Mo            4.7268792535       10.0065304219       -9.1672481230    0   0   0
Mo            6.3025111524        9.0968738021       -3.0554915260    0   0   0
S             4.7268840634       10.0065452125       -4.6232380477    0   0   0
S             6.3024994256        9.0968439439       -7.6014065489    0   0   0
S             6.3024998793        9.0968450728      -10.7330757790    0   0   0
S             4.7268847312       10.0065459141       -1.4877283294    0   0   0
Mo            4.7263313201       10.0062259561        3.0560224689
Mo            6.2949517100        9.0922944257        9.1579519081
S             4.7222053761       10.0036000666        7.5864199324
S             6.3027391510        9.0971280445        4.6227578287
S             6.3025273740        9.0971609214        1.4880907749
S             4.7334021117       10.0150509648       10.7343189605
Pd            1.5739422129        6.3750939550       12.1150866347
H             3.1632777071        1.7950041054       12.0998138719
End final coordinates

     Writing all to output data dir ./outdir/pwscf.save/

     General routines

     Parallel routines

   This run was terminated on:   5:47:42  30Aug2023

   JOB DONE.
Application 11110912 resources: utime ~3288455s, stime ~33737s, Rss ~3496836, inblocks ~0, outblocks ~52903992