     Program PWSCF v.7.3 starts on 19Mar2024 at 15:25: 4

     Waiting for input...
     Reading input from standard input
Warning: card &CELL ignored
Warning: card / ignored

     Current dimensions of program PWSCF are:
     Max number of different atomic species (ntypx) = 10
     Max number of k-points (npk) =  40000
     Max angular momentum in pseudopotentials (lmaxx) =  4
     file Mo.pbe-spn-kjpaw_psl.1.0.0.UPF: wavefunction(s)  4S 4D renormalized
     file S.pbe-n-kjpaw_psl.1.0.0.UPF: wavefunction(s)  3S 3P renormalized
     file Pd.pbe-spn-kjpaw_psl.1.0.0.UPF: wavefunction(s)  4S 5S 4D renormalized
     file Pt.pbe-spfn-kjpaw_psl.1.0.0.UPF: wavefunction(s)  5P 4F renormalized

     R & G space division:  proc/nbgrp/npool/nimage =      36
     Subspace diagonalization in iterative solution of the eigenvalue problem:
     one sub-group per band group will be used

     Using Slab Decomposition

     bravais-lattice index     =            0
     lattice parameter (alat)  =      23.8199  a.u.
     unit-cell volume          =   33861.0370 (a.u.)^3
     number of atoms/cell      =          194
     number of atomic types    =            4
     number of electrons       =      1714.00
     number of Kohn-Sham states=         1028
     kinetic-energy cutoff     =      77.0000  Ry
     charge density cutoff     =     539.0000  Ry
     scf convergence threshold =      1.0E-06
     mixing beta               =       0.2000
     number of iterations used =            8  plain     mixing
     energy convergence thresh.=      1.0E-04
     force convergence thresh. =      1.0E-03
     Exchange-correlation= SLA  PW   PBX  PBC
                           (   1   4   3   4   0   0   0)
     nstep                     =         1000

     Effective Screening Medium Method
     Boundary Conditions: Vacuum-Slab-Vacuum
     total charge in unit cell        =   0.0000
     grid points for fit at edges     =        4

     celldm(1)=  23.819920  celldm(2)=   0.000000  celldm(3)=   0.000000
     celldm(4)=   0.000000  celldm(5)=   0.000000  celldm(6)=   0.000000

     crystal axes: (cart. coord. in units of alat)
               a(1) = (   1.000000   0.000000   0.000000 )
               a(2) = (  -0.499999   0.866026   0.000000 )
               a(3) = (   0.000000   0.000000   2.893000 )

     reciprocal axes: (cart. coord. in units 2 pi/alat)
               b(1) = (  1.000000  0.577349  0.000000 )
               b(2) = (  0.000000  1.154700  0.000000 )
               b(3) = (  0.000000  0.000000  0.345662 )

     PseudoPot. # 1 for Mo read from file:
     ./pseudo/Mo.pbe-spn-kjpaw_psl.1.0.0.UPF
     MD5 check sum: 317bf72632116215fd98f72de1686f13
     Pseudo is Projector augmented-wave + core cor, Zval = 14.0
     Generated using 'atomic' code by A. Dal Corso  v.7.2
     Shape of augmentation charge: PSQ
     Using radial grid of 1229 points,  6 beta functions with:
                l(1) =   0
                l(2) =   0
                l(3) =   1
                l(4) =   1
                l(5) =   2
                l(6) =   2
     Q(r) pseudized with 0 coefficients

     PseudoPot. # 2 for S  read from file:
     ./pseudo/S.pbe-n-kjpaw_psl.1.0.0.UPF
     MD5 check sum: 8b7b5302570d38d5e87fed6a1065abda
     Pseudo is Projector augmented-wave + core cor, Zval =  6.0
     Generated using 'atomic' code by A. Dal Corso  v.7.2
     Shape of augmentation charge: PSQ
     Using radial grid of 1151 points,  6 beta functions with:
                l(1) =   0
                l(2) =   0
                l(3) =   1
                l(4) =   1
                l(5) =   2
                l(6) =   2
     Q(r) pseudized with 0 coefficients

     PseudoPot. # 3 for Pd read from file:
     ./pseudo/Pd.pbe-spn-kjpaw_psl.1.0.0.UPF
     MD5 check sum: a60571a671f2502b8a6a4569d20a6edb
     Pseudo is Projector augmented-wave + core cor, Zval = 18.0
     Generated using 'atomic' code by A. Dal Corso  v.7.2
     Shape of augmentation charge: PSQ
     Using radial grid of 1235 points,  6 beta functions with:
                l(1) =   0
                l(2) =   0
                l(3) =   1
                l(4) =   1
                l(5) =   2
                l(6) =   2
     Q(r) pseudized with 0 coefficients

     PseudoPot. # 4 for Pt read from file:
     ./pseudo/Pt.pbe-spfn-kjpaw_psl.1.0.0.UPF
     MD5 check sum: 620096ebf4e6ebacc94de60fd67efcb5
     Pseudo is Projector augmented-wave + core cor, Zval = 32.0
     Generated using 'atomic' code by A. Dal Corso  v.7.2
     Shape of augmentation charge: PSQ
     Using radial grid of 1277 points,  8 beta functions with:
                l(1) =   0
                l(2) =   0
                l(3) =   1
                l(4) =   1
                l(5) =   2
                l(6) =   2
                l(7) =   3
                l(8) =   3
     Q(r) pseudized with 0 coefficients

     atomic species   valence    mass     pseudopotential
     Mo               14.00    95.95000     Mo( 1.00)
     S                 6.00    32.06000     S ( 1.00)
     Pd               18.00   106.42000     Pd( 1.00)
     Pt               32.00   195.08400     Pt( 1.00)

     No symmetry found

   Cartesian axes

     site n.     atom                  positions (alat units)
         1        Mo     tau(   1) = (   0.0000010   0.1443372  -0.7272732  )
         2        Mo     tau(   2) = (   0.1249995   0.0721706  -0.2424038  )
         3        S      tau(   3) = (   0.0000015   0.1443386  -0.3667807  )
         4        S      tau(   4) = (   0.1250010   0.0721682  -0.6030489  )
         5        S      tau(   5) = (   0.1250010   0.0721683  -0.8514963  )
         6        S      tau(   6) = (   0.0000015   0.1443389  -0.1180260  )
         7        Mo     tau(   7) = (   0.0000007   0.1443589   0.2424205  )
         8        Mo     tau(   8) = (   0.1250041   0.0720322   0.7266168  )
         9        S      tau(   9) = (   0.0000742   0.1444871   0.6020949  )
        10        S      tau(  10) = (   0.1250024   0.0721701   0.3667478  )
        11        S      tau(  11) = (   0.1250035   0.0721876   0.1180348  )
        12        S      tau(  12) = (  -0.0004118   0.1430864   0.8514340  )
        13        Mo     tau(  13) = (  -0.1249989   0.3608437  -0.7272732  )
        14        Mo     tau(  14) = (   0.0000030   0.2886752  -0.2424042  )
        15        S      tau(  15) = (  -0.1249977   0.3608450  -0.3667802  )
        16        S      tau(  16) = (   0.0000012   0.2886747  -0.6030489  )
        17        S      tau(  17) = (   0.0000012   0.2886748  -0.8514963  )
        18        S      tau(  18) = (  -0.1249977   0.3608454  -0.1180274  )
        19        Mo     tau(  19) = (  -0.1249729   0.3608584   0.2424608  )
        20        Mo     tau(  20) = (  -0.0007193   0.2876626   0.7275440  )
        21        S      tau(  21) = (  -0.1251115   0.3607789   0.6027257  )
        22        S      tau(  22) = (   0.0000621   0.2887099   0.3668377  )
        23        S      tau(  23) = (  -0.0000096   0.2886902   0.1180527  )
        24        S      tau(  24) = (  -0.1254673   0.3605734   0.8517408  )
        25        Mo     tau(  25) = (  -0.2499987   0.5773502  -0.7272732  )
        26        Mo     tau(  26) = (  -0.1249977   0.5051839  -0.2424055  )
        27        S      tau(  27) = (  -0.2499981   0.5773518  -0.3667809  )
        28        S      tau(  28) = (  -0.1249986   0.5051812  -0.6030489  )
        29        S      tau(  29) = (  -0.1249986   0.5051813  -0.8514963  )
        30        S      tau(  30) = (  -0.2499979   0.5773512  -0.1180266  )
        31        Mo     tau(  31) = (  -0.2499795   0.5773389   0.2424205  )
        32        Mo     tau(  32) = (  -0.1262356   0.5050639   0.7275441  )
        33        S      tau(  33) = (  -0.2498323   0.5773390   0.6020948  )
        34        S      tau(  34) = (  -0.1249376   0.5052159   0.3668377  )
        35        S      tau(  35) = (  -0.1249905   0.5051638   0.1180531  )
        36        S      tau(  36) = (  -0.2512883   0.5776183   0.8514340  )
        37        Mo     tau(  37) = (  -0.3749985   0.7938567  -0.7272732  )
        38        Mo     tau(  38) = (  -0.2500001   0.7216874  -0.2424031  )
        39        S      tau(  39) = (  -0.3749980   0.7938584  -0.3667800  )
        40        S      tau(  40) = (  -0.2499984   0.7216877  -0.6030489  )
        41        S      tau(  41) = (  -0.2499984   0.7216878  -0.8514963  )
        42        S      tau(  42) = (  -0.3749982   0.7938585  -0.1180264  )
        43        Mo     tau(  43) = (  -0.3749962   0.7938568   0.2423838  )
        44        Mo     tau(  44) = (  -0.2501148   0.7217588   0.7266170  )
        45        S      tau(  45) = (  -0.3749945   0.7938590   0.6021274  )
        46        S      tau(  46) = (  -0.2499958   0.7216877   0.3667488  )
        47        S      tau(  47) = (  -0.2499810   0.7216794   0.1180323  )
        48        S      tau(  48) = (  -0.3749953   0.7938585   0.8511588  )
        49        Mo     tau(  49) = (   0.2500010   0.1443372  -0.7272732  )
        50        Mo     tau(  50) = (   0.3750034   0.0721723  -0.2424032  )
        51        S      tau(  51) = (   0.2500017   0.1443391  -0.3667788  )
        52        S      tau(  52) = (   0.3750010   0.0721682  -0.6030489  )
        53        S      tau(  53) = (   0.3750010   0.0721683  -0.8514963  )
        54        S      tau(  54) = (   0.2500016   0.1443391  -0.1180271  )
        55        Mo     tau(  55) = (   0.2500054   0.1443594   0.2424211  )
        56        Mo     tau(  56) = (   0.3749279   0.0721263   0.7263991  )
        57        S      tau(  57) = (   0.2499344   0.1444864   0.6020948  )
        58        S      tau(  58) = (   0.3750316   0.0721860   0.3667597  )
        59        S      tau(  59) = (   0.3749924   0.0721644   0.1180346  )
        60        S      tau(  60) = (   0.2504199   0.1430865   0.8514340  )
[...]
       180        S      tau( 180) = (   0.5012979   0.5776190   0.8514332  )
       181        Mo     tau( 181) = (   0.3750016   0.7938567  -0.7272732  )
       182        Mo     tau( 182) = (   0.5000025   0.7216901  -0.2424039  )
       183        S      tau( 183) = (   0.3750019   0.7938578  -0.3667793  )
       184        S      tau( 184) = (   0.5000016   0.7216877  -0.6030489  )
       185        S      tau( 185) = (   0.5000016   0.7216878  -0.8514963  )
       186        S      tau( 186) = (   0.3750020   0.7938579  -0.1180272  )
       187        Mo     tau( 187) = (   0.3749848   0.7938487   0.2424206  )
       188        Mo     tau( 188) = (   0.5001249   0.7217591   0.7266160  )
       189        S      tau( 189) = (   0.3749125   0.7937251   0.6020942  )
       190        S      tau( 190) = (   0.5000021   0.7216868   0.3667472  )
       191        S      tau( 191) = (   0.4999874   0.7216780   0.1180346  )
       192        S      tau( 192) = (   0.3758826   0.7948451   0.8514332  )
       193        Pd     tau( 193) = (   0.1250063   0.5051842   0.9601361  )
       194        Pt     tau( 194) = (   0.6249921   0.0723525   0.9702531  )

     DFT-D3 Dispersion Correction (3-body terms):
       Reference C6 values for interpolation:

[...]
   -40.5998 -40.5997 -40.5997 -40.5997 -40.5996 -40.5995 -40.5995 -40.5989
   -40.5989 -40.5988 -40.5988 -40.5896 -40.5870 -40.5818 -40.5745 -40.5650
   -40.5650 -40.5650 -40.5650 -40.5649 -40.5649 -40.5648 -40.5648 -40.5641
   -40.5641 -40.5641 -40.5641 -40.5532 -40.5529 -40.5528 -40.5528 -40.5527
   -40.5520 -40.5519 -40.5471 -40.5454 -40.5410 -40.5400 -40.5336 -40.5336
   -40.5335 -40.5333 -40.5326 -40.5326 -40.5221 -40.5165 -40.5165 -40.5165
   -40.5164 -40.5156 -40.5156 -40.5155 -40.5119 -40.4959 -40.4886 -40.4859
   -40.4858 -40.4858 -40.4857 -40.4849 -40.4849 -40.4729 -40.4529 -19.8746
   -19.8259 -19.7902 -19.7701 -19.6894 -19.6757 -19.5838 -19.5795 -19.4181
   -19.4093 -19.3520 -19.3499 -19.2582 -19.2566 -19.1576 -19.1569 -18.8585
   -18.8141 -18.7928 -18.7309 -18.6961 -18.6824 -18.6517 -18.6502 -18.6493
   -18.6433 -18.6311 -18.6152 -18.5840 -18.5792 -18.5734 -18.5684 -18.5310
   -18.5142 -18.5007 -18.4841 -18.4824 -18.4793 -18.4725 -18.4564 -18.4482
   -18.4162 -18.4119 -18.4094 -18.3978 -18.3762 -18.3416 -18.3373 -18.3368
   -18.3193 -18.3088 -18.2887 -18.2718 -18.2611 -18.2514 -18.2158 -18.2023
   -18.1870 -18.1781 -18.1659 -18.1435 -18.1208 -18.1129 -18.1039 -18.0773
   -18.0668 -18.0571 -18.0466 -18.0346 -18.0310 -18.0277 -18.0264 -18.0218
   -18.0046 -18.0037 -17.9998 -17.9986 -17.9934 -17.9912 -17.9884 -17.9822
   -17.9790 -17.9739 -17.9642 -17.9396 -17.9376 -17.9357 -17.9325 -17.9291
   -17.9287 -17.9269 -17.9227 -17.9168 -17.9115 -17.8794 -17.8745 -17.8705
   -17.8649 -17.8606 -17.8557 -17.8242 -17.8215 -17.8194 -17.8100 -17.8015
   -17.7817 -17.7761 -17.7738 -17.7699 -17.7678 -17.7488 -17.7486 -17.7479
   -17.7475 -17.7470 -17.7463 -17.7349 -17.7331 -17.7161 -17.7125 -17.6914
   -17.6882 -17.6724 -17.6681 -17.6568 -17.6543 -17.6485 -17.6482 -11.8684
   -11.6609 -11.6541 -11.5992 -11.5745 -11.5180 -11.4682 -11.4511 -11.4377
   -11.4275 -11.4248 -11.4214 -11.4088 -11.3958 -11.3843 -11.3756 -11.3460
   -11.3172 -11.3078 -11.3049 -11.2879 -11.2784 -11.2665 -11.2514 -11.2458
   -11.2182 -11.2044 -11.1990 -11.1950 -11.1897 -11.1853 -11.1841 -11.1717
   -11.1387 -11.1363 -11.1301 -11.1206 -11.1156 -11.1008 -11.0986 -11.0969
   -11.0938 -11.0780 -11.0760 -11.0639 -11.0539 -11.0233 -11.0211 -10.9915
   -10.9885 -10.9735 -10.9366 -10.9143 -10.9017 -10.8893 -10.8744 -10.8603
   -10.8529 -10.8425 -10.8359 -10.8301 -10.8093 -10.7904 -10.7843 -10.7661
   -10.7628 -10.7603 -10.7545 -10.7409 -10.7404 -10.7396 -10.7393 -10.7344
   -10.7327 -10.7277 -10.7244 -10.7214 -10.7211 -10.7130 -10.7125 -10.7108
[...]
    -3.3045  -3.2849  -3.2797  -3.2757  -3.2734  -3.2720  -3.2666  -3.2629
    -3.2604  -3.2330  -3.2220  -3.2202  -3.2138  -3.2104  -3.2072  -3.2052
    -3.2041  -3.1980  -3.1898  -3.1785  -3.1708  -3.1662  -3.1625  -3.1590
    -3.1551  -3.1422  -3.1392  -3.1354  -3.1290  -3.1186  -3.1160  -3.1062
    -3.1022  -3.1013  -3.0967  -3.0901  -3.0891  -3.0890  -3.0768  -3.0589
    -3.0256  -3.0132  -3.0091  -3.0047  -3.0005  -2.9909  -2.9861  -2.9606
    -2.9551  -2.9504  -2.9498  -2.9481  -2.9473  -2.9433  -2.9409  -2.9360
    -2.9328  -2.9324  -2.9296  -2.9182  -2.9153  -2.9136  -2.9106  -2.9094
    -2.9032  -2.8990  -2.8950  -2.8927  -2.8886  -2.8766  -2.8739  -2.8717
    -2.8642  -2.8615  -2.8577  -2.8494  -2.8452  -2.8334  -2.8279  -2.8196
    -2.8138  -2.8078  -2.8028  -2.8008  -2.7778  -2.7289  -2.7262  -2.7177
    -2.7142  -2.6748  -2.6581  -2.6445  -2.6397  -2.5568  -2.5377  -2.5224
    -2.5186  -2.4995  -2.4874  -2.4832  -2.4717  -2.4637  -2.4576  -2.4545
    -2.4493  -2.4473  -2.4290  -2.3671  -2.3335  -2.3280  -2.3234  -2.3171
    -2.3077  -2.3003  -2.2695  -2.2688

     the Fermi energy is    -4.6380 ev

!    total energy              =  -33980.28477361 Ry
     total all-electron energy =   -667406.137780 Ry
     estimated scf accuracy    <       0.00000098 Ry
     smearing contrib. (-TS)   =      -0.00000008 Ry
     internal energy E=F+TS    =  -33980.28477353 Ry

     The total energy is F=E-TS. E is the sum of the following terms:
     one-electron contribution = 1160973.67657299 Ry
     hartree contribution      = -580658.68825335 Ry
     xc contribution           =   -2010.79523920 Ry
     ewald contribution        = -590976.10226590 Ry
     DFT-D3 Dispersion         =      -5.43251592 Ry
     one-center paw contrib.   =  -21302.94307215 Ry

     convergence has been achieved in  14 iterations

     negative rho (up, down):  8.976E-04 0.000E+00

     Forces acting on atoms (cartesian axes, Ry/au):

     atom    1 type  1   force =    -0.00001286   -0.00002422    0.00068119
     atom    2 type  1   force =     0.00002942   -0.00004490   -0.00000431
     atom    3 type  2   force =     0.00000070   -0.00001036   -0.00002130
     atom    4 type  2   force =     0.00000022   -0.00000641    0.00163419
     atom    5 type  2   force =    -0.00000019   -0.00000626   -0.00238185
     atom    6 type  2   force =     0.00000200   -0.00000914    0.00001259
     atom    7 type  1   force =    -0.00000496   -0.00001369    0.00004139
     atom    8 type  1   force =     0.00000504   -0.00002540   -0.00012586
     atom    9 type  2   force =    -0.00022618   -0.00017991    0.00007522
     atom   10 type  2   force =     0.00000154    0.00000178    0.00003924
     atom   11 type  2   force =     0.00000173   -0.00000236   -0.00000107
     atom   12 type  2   force =     0.00009690    0.00010877   -0.00028908
     atom   13 type  1   force =    -0.00002477   -0.00000333    0.00068448
     atom   14 type  1   force =    -0.00002377    0.00000132   -0.00000497
     atom   15 type  2   force =    -0.00000247    0.00000235   -0.00001878
     atom   16 type  2   force =    -0.00000745   -0.00000525    0.00163537
     atom   17 type  2   force =    -0.00000791   -0.00000474   -0.00238585
     atom   18 type  2   force =    -0.00000323    0.00000553    0.00000153
     atom   19 type  1   force =    -0.00001399   -0.00002577    0.00003432
     atom   20 type  1   force =     0.00009285    0.00003402   -0.00040750
     atom   21 type  2   force =    -0.00031625   -0.00007130    0.00006020
     atom   22 type  2   force =     0.00000793    0.00000174    0.00005187
     atom   23 type  2   force =    -0.00001472   -0.00001571    0.00000214
     atom   24 type  2   force =     0.00006325    0.00000832   -0.00024276
     atom   25 type  1   force =    -0.00001108    0.00000765    0.00068484
     atom   26 type  1   force =    -0.00003506    0.00000761    0.00000189
     atom   27 type  2   force =    -0.00000691    0.00000791   -0.00001149
     atom   28 type  2   force =    -0.00000622    0.00000247    0.00163456
     atom   29 type  2   force =    -0.00000575    0.00000109   -0.00238141
     atom   30 type  2   force =    -0.00000475    0.00000149    0.00000211
     atom   31 type  1   force =    -0.00001385    0.00000128    0.00001532
     atom   32 type  1   force =    -0.00015367    0.00001526   -0.00015735
     atom   33 type  2   force =     0.00038872   -0.00024996   -0.00025281
     atom   34 type  2   force =     0.00000236   -0.00000869    0.00006043
     atom   35 type  2   force =    -0.00000681   -0.00000533   -0.00001119
     atom   36 type  2   force =     0.00008656   -0.00004878   -0.00025886
     atom   37 type  1   force =     0.00000154   -0.00001775    0.00068755
     atom   38 type  1   force =     0.00000770    0.00001910   -0.00001933
     atom   39 type  2   force =     0.00000116   -0.00000633   -0.00000659
     atom   40 type  2   force =    -0.00000171   -0.00000052    0.00163027
     atom   41 type  2   force =     0.00000133   -0.00000107   -0.00237642
     atom   42 type  2   force =    -0.00000053   -0.00000599    0.00000604
     atom   43 type  1   force =     0.00000627    0.00002207    0.00001948
     atom   44 type  1   force =    -0.00006387   -0.00000746   -0.00028637
     atom   45 type  2   force =     0.00000006    0.00040842   -0.00033743
     atom   46 type  2   force =    -0.00001908   -0.00000148    0.00002342
     atom   47 type  2   force =     0.00000277    0.00000609   -0.00000039
     atom   48 type  2   force =     0.00000175    0.00008873   -0.00029200
     atom   49 type  1   force =     0.00001175   -0.00002729    0.00068557
     atom   50 type  1   force =    -0.00003768   -0.00004455   -0.00001350
     atom   51 type  2   force =     0.00000118   -0.00000865   -0.00001499
     atom   52 type  2   force =     0.00000404   -0.00000306    0.00163037
     atom   53 type  2   force =     0.00000276   -0.00000368   -0.00238081
     atom   54 type  2   force =    -0.00000120   -0.00000958    0.00000902
     atom   55 type  1   force =     0.00000577   -0.00001425    0.00004273
     atom   56 type  1   force =     0.00063106    0.00032124    0.00063125
     atom   57 type  2   force =     0.00022970   -0.00017946    0.00007289
     atom   58 type  2   force =    -0.00001891    0.00000436    0.00000360
     atom   59 type  2   force =    -0.00000490   -0.00000171   -0.00001825
     atom   60 type  2   force =    -0.00009552    0.00010791   -0.00028989
[...]
     atom  180 type  2   force =    -0.00008716   -0.00004896   -0.00025828
     atom  181 type  1   force =     0.00000620    0.00000540    0.00068511
     atom  182 type  1   force =     0.00001638   -0.00001571   -0.00001239
     atom  183 type  2   force =     0.00000617   -0.00000592   -0.00001423
     atom  184 type  2   force =     0.00000312   -0.00000038    0.00163054
     atom  185 type  2   force =     0.00000029   -0.00000204   -0.00237626
     atom  186 type  2   force =     0.00000378   -0.00000472    0.00000379
     atom  187 type  1   force =     0.00000682    0.00002390    0.00002435
     atom  188 type  1   force =     0.00006498   -0.00001024   -0.00028891
     atom  189 type  2   force =    -0.00040944    0.00021070    0.00052915
     atom  190 type  2   force =     0.00002011   -0.00000351    0.00002812
     atom  191 type  2   force =    -0.00000237    0.00000638   -0.00000604
     atom  192 type  2   force =     0.00032425   -0.00012994    0.00017576
     atom  193 type  3   force =     0.00000102    0.00004359   -0.00029600
     atom  194 type  4   force =     0.00000002    0.00020700   -0.00050718

     Total force =     0.003549     Total SCF correction =     0.002487
     SCF correction compared to forces is large: reduce conv_thr to get better values
     Energy error            =      4.9E-05 Ry
     Gradient error          =      8.6E-04 Ry/Bohr

     bfgs converged in  16 scf cycles and  15 bfgs steps
     (criteria: energy <  1.0E-04 Ry, force <  1.0E-03 Ry/Bohr)

     End of BFGS Geometry Optimization

     Final energy             =  -33980.2847736118 Ry

     File ./outdir/pwscf.bfgs deleted, as requested
Begin final coordinates

ATOMIC_POSITIONS (angstrom)
Mo               0.0000119917        1.8193638619       -9.1672481230    0   0   0
Mo               1.5756136568        0.9097075315       -3.0554901653    0   0   0
S                0.0000188998        1.8193822938       -4.6232556019    0   0   0
S                1.5756321638        0.9096773839       -7.6014065489    0   0   0
S                1.5756326175        0.9096785128      -10.7330757790    0   0   0
S                0.0000189190        1.8193860094       -1.4877129945    0   0   0
Mo              -0.0001343246        1.8194747912        3.0561407647
Mo               1.5756702959        0.9095129250        9.1475120017
S               -0.0002609048        1.8237722242        7.5805824199
S                1.5756534367        0.9093863406        4.6231535353
S                1.5756541360        0.9099449957        1.4881958703
S                0.0148976017        1.8059301934       10.7297118569
Mo              -1.5756053507        4.5484193819       -9.1672481230    0   0   0
Mo               0.0000378379        3.6387394919       -3.0554952701    0   0   0
S               -1.5755913433        4.5484363582       -4.6232494962    0   0   0
S                0.0000148214        3.6387329039       -7.6014065489    0   0   0
S                0.0000152751        3.6387340328      -10.7330757790    0   0   0
S               -1.5755906502        4.5484413613       -1.4877305502    0   0   0
Mo              -1.5755452241        4.5484804523        3.0564585926
Mo              -0.0060695315        3.6283182070        9.1667281326
S               -1.5736951786        4.5473949714        7.5882664566
S                0.0006409507        3.6391799957        4.6236644454
S               -0.0002234137        3.6387673417        1.4882077299
S               -1.5697925541        4.5606948873       10.7327206384
Mo              -3.1512226931        7.2774749019       -9.1672481230    0   0   0
Mo              -1.5755910988        6.3678216792       -3.0555115988    0   0   0
S               -3.1512162438        7.2774954350       -4.6232578178    0   0   0
S               -1.5756025210        6.3677884239       -7.6014065489    0   0   0
S               -1.5756020673        6.3677895528      -10.7330757790    0   0   0
S               -3.1512127704        7.2774877076       -1.4877200710    0   0   0
Mo              -3.1510944158        7.2774249666        3.0557142742
Mo              -1.5892950096        6.3659777898        9.1609030318
S               -3.1527275074        7.2788076676        7.5847201555
S               -1.5752770170        6.3682953610        4.6239182883
S               -1.5754569748        6.3676329140        1.4882796439
S               -3.1659551361        7.2806983856       10.7281211030
Mo              -4.7268400355       10.0065304219       -9.1672481230    0   0   0
Mo              -3.1512405618        9.0968403586       -3.0554816746    0   0   0
S               -4.7268341792       10.0065523623       -4.6232463762    0   0   0
S               -3.1512198634        9.0968439439       -7.6014065489    0   0   0
S               -3.1512194097        9.0968450728      -10.7330757790    0   0   0
S               -4.7268370797       10.0065537885       -1.4877176751    0   0   0
Mo              -4.7268153326       10.0064618094        3.0554197672
Mo              -3.1543391376        9.0966236948        9.1575029353
S               -4.7267960825       10.0024399665        7.5838164010
S               -3.1511484498        9.0968171331        4.6230234854
S               -3.1508417643        9.0969014297        1.4880296124
S               -4.7267959756       10.0082888389       10.7224446082
Mo               3.1512517547        1.8193638619       -9.1672481230    0   0   0
Mo               4.7269020221        0.9097289540       -3.0554823951    0   0   0
S                3.1512612351        1.8193882564       -4.6232320683    0   0   0
S                4.7268719268        0.9096773839       -7.6014065489    0   0   0
S                4.7268723805        0.9096785128      -10.7330757790    0   0   0
S                3.1512592485        1.8193890201       -1.4877261251    0   0   0
Mo               3.1514497742        1.8194737155        3.0561404595
Mo               4.7066195133        0.9053658624        9.1610360029
S                3.1515977463        1.8237726003        7.5805818133
S                4.7276672063        0.9099388865        4.6239615564
S                4.7269238434        0.9096046399        1.4883356186
S                3.1364434104        1.8059327687       10.7297051417
[...]
S                6.3173165127        7.2806991219       10.7281188075
Mo               4.7268792535       10.0065304219       -9.1672481230    0   0   0
Mo               6.3025111524        9.0968738021       -3.0554915260    0   0   0
S                4.7268840634       10.0065452125       -4.6232380477    0   0   0
S                6.3024994256        9.0968439439       -7.6014065489    0   0   0
S                6.3024998793        9.0968450728      -10.7330757790    0   0   0
S                4.7268847312       10.0065459141       -1.4877283294    0   0   0
Mo               4.7265351985       10.0065471142        3.0562994171
Mo               6.3057063475        9.0966249812        9.1575029982
S                4.7271324381       10.0042149350        7.5881791284
S                6.3024797472        9.0968185667        4.6230202036
S                6.3021703495        9.0969007130        1.4880387852
S                4.7432200528       10.0157878083       10.7322505007
Pd               1.5756834809        6.3792358835       12.1037310732
Pt               7.8781316089        0.9018133325       11.9618037380
End final coordinates

     Writing all to output data dir ./outdir/pwscf.save/ :
     XML data file, charge density, pseudopotentials, collected wavefunctions

     General routines

     Parallel routines

   This run was terminated on:  21: 0: 5  19Mar2024

   JOB DONE.