     Program PWSCF v.7.2 starts on 11Apr2024 at 22: 9:56

     Waiting for input...
     Reading input from standard input
Warning: card &CELL ignored
Warning: card / ignored

     Current dimensions of program PWSCF are:
     Max number of different atomic species (ntypx) = 10
     Max number of k-points (npk) =  40000
     Max angular momentum in pseudopotentials (lmaxx) =  4
     file Mo.pbe-spn-kjpaw_psl.1.0.0.UPF: wavefunction(s)  4S 4D renormalized
     file C.pbe-n-kjpaw_psl.1.0.0.UPF: wavefunction(s)  2S 2P renormalized
     Found identity + (  0.0000 -0.5000  0.0000) symmetry
     This is a supercell, fractional translations are disabled

     R & G space division:  proc/nbgrp/npool/nimage =      36
     Subspace diagonalization in iterative solution of the eigenvalue problem:
     one sub-group per band group will be used

     Using Slab Decomposition

     bravais-lattice index     =            0
     lattice parameter (alat)  =      29.4279  a.u.
     unit-cell volume          =   34581.2094 (a.u.)^3
     number of atoms/cell      =          144
     number of atomic types    =            2
     number of electrons       =      1536.00
     number of Kohn-Sham states=          922
     kinetic-energy cutoff     =      77.0000  Ry
     charge density cutoff     =     539.0000  Ry
     scf convergence threshold =      1.0E-06
     mixing beta               =       0.2000
     number of iterations used =            8  plain     mixing
     energy convergence thresh.=      1.0E-04
     force convergence thresh. =      1.0E-03
     Exchange-correlation= SLA  PW   PBX  PBC
                           (   1   4   3   4   0   0   0)
     nstep                     =         1000

     Effective Screening Medium Method
     Boundary Conditions: Vacuum-Slab-Vacuum
     total charge in unit cell        =   0.0000
     grid points for fit at edges     =        4

     celldm(1)=  29.427889  celldm(2)=   0.000000  celldm(3)=   0.000000
     celldm(4)=   0.000000  celldm(5)=   0.000000  celldm(6)=   0.000000

     crystal axes: (cart. coord. in units of alat)
               a(1) = (   1.000000   0.000000   0.000000 )
               a(2) = (  -0.000001   0.982188   0.000000 )
               a(3) = (   0.000000   0.000000   1.381555 )

     reciprocal axes: (cart. coord. in units 2 pi/alat)
               b(1) = (  1.000000  0.000001  0.000000 )
               b(2) = (  0.000000  1.018135  0.000000 )
               b(3) = (  0.000000  0.000000  0.723822 )

     PseudoPot. # 1 for Mo read from file:
     ./pseudo/Mo.pbe-spn-kjpaw_psl.1.0.0.UPF
     MD5 check sum: 317bf72632116215fd98f72de1686f13
     Pseudo is Projector augmented-wave + core cor, Zval = 14.0
     Generated using 'atomic' code by A. Dal Corso  v.7.2
     Shape of augmentation charge: PSQ
     Using radial grid of 1229 points,  6 beta functions with:
                l(1) =   0
                l(2) =   0
                l(3) =   1
                l(4) =   1
                l(5) =   2
                l(6) =   2
     Q(r) pseudized with 0 coefficients

     PseudoPot. # 2 for C  read from file:
     ./pseudo/C.pbe-n-kjpaw_psl.1.0.0.UPF
     MD5 check sum: 6b0792899573946bb42fe395835041da
     Pseudo is Projector augmented-wave + core cor, Zval =  4.0
     Generated using 'atomic' code by A. Dal Corso  v.7.2
     Shape of augmentation charge: PSQ
     Using radial grid of 1073 points,  4 beta functions with:
                l(1) =   0
                l(2) =   0
                l(3) =   1
                l(4) =   1
     Q(r) pseudized with 0 coefficients

     atomic species   valence    mass     pseudopotential
        Mo            14.00    95.95000     Mo( 1.00)
        C              4.00    12.01100     C ( 1.00)

     No symmetry found

   Cartesian axes

     site n.     atom                  positions (alat units)
         1           Mo  tau(   1) = (   0.3068981   0.3595449  -0.1465471  )
         2           Mo  tau(   2) = (   0.0264342   0.0381785  -0.2091611  )
         3           Mo  tau(   3) = (   0.1402322   0.2837244  -0.2091614  )
         4           Mo  tau(   4) = (   0.1931010   0.1139952  -0.1465480  )
         5           Mo  tau(   5) = (   0.0264344   0.1887146  -0.0879712  )
         6           Mo  tau(   6) = (   0.3068986   0.0220687  -0.0292901  )
         7           Mo  tau(   7) = (   0.1931009   0.2676168  -0.0292879  )
         8           Mo  tau(   8) = (   0.1402325   0.4342627  -0.0879704  )
         9           C   tau(   9) = (   0.2500003   0.2361321  -0.1486346  )
        10           C   tau(  10) = (   0.0833324   0.1615882  -0.2070755  )
        11           C   tau(  11) = (   0.0833327   0.4071366  -0.2070737  )
        12           C   tau(  12) = (   0.2500003   0.4816800  -0.1486344  )
        13           Mo  tau(  13) = (   0.3068980   0.1726076   0.0919023  )
        14           Mo  tau(  14) = (   0.0264339   0.3423352   0.0292882  )
        15           Mo  tau(  15) = (   0.1402322   0.0967871   0.0292879  )
        16           Mo  tau(  16) = (   0.1931006   0.4181519   0.0919014  )
        17           Mo  tau(  17) = (   0.0264344   0.0017773   0.1504781  )
        18           Mo  tau(  18) = (   0.3068983   0.3262254   0.2091592  )
        19           Mo  tau(  19) = (   0.1931009   0.0806795   0.2091614  )
        20           Mo  tau(  20) = (   0.1402325   0.2473254   0.1504790  )
        21           C   tau(  21) = (   0.2500003   0.0491949   0.0898147  )
        22           C   tau(  22) = (   0.0833320   0.4657449   0.0313739  )
        23           C   tau(  23) = (   0.0833327   0.2201993   0.0313756  )
        24           C   tau(  24) = (   0.2500003   0.2947427   0.0898149  )
        25           Mo  tau(  25) = (   0.3068977   0.8506390  -0.1465471  )
        26           Mo  tau(  26) = (   0.0264339   0.5292725  -0.2091611  )
        27           Mo  tau(  27) = (   0.1402319   0.7748184  -0.2091614  )
        28           Mo  tau(  28) = (   0.1931007   0.6050892  -0.1465480  )
        29           Mo  tau(  29) = (   0.0264341   0.6798087  -0.0879712  )
        30           Mo  tau(  30) = (   0.3068983   0.5131627  -0.0292901  )
        31           Mo  tau(  31) = (   0.1931006   0.7587108  -0.0292879  )
        32           Mo  tau(  32) = (   0.1402322   0.9253567  -0.0879704  )
        33           C   tau(  33) = (   0.2500000   0.7272262  -0.1486346  )
        34           C   tau(  34) = (   0.0833321   0.6526822  -0.2070755  )
        35           C   tau(  35) = (   0.0833324   0.8982306  -0.2070737  )
        36           C   tau(  36) = (   0.2500000   0.9727740  -0.1486344  )
        37           Mo  tau(  37) = (   0.3068977   0.6637017   0.0919023  )
        38           Mo  tau(  38) = (   0.0264336   0.8334292   0.0292882  )
        39           Mo  tau(  39) = (   0.1402319   0.5878811   0.0292879  )
        40           Mo  tau(  40) = (   0.1931003   0.9092460   0.0919014  )
        41           Mo  tau(  41) = (   0.0264341   0.4928714   0.1504781  )
        42           Mo  tau(  42) = (   0.3068980   0.8173194   0.2091592  )
        43           Mo  tau(  43) = (   0.1931006   0.5717735   0.2091614  )
        44           Mo  tau(  44) = (   0.1402322   0.7384194   0.1504790  )
        45           C   tau(  45) = (   0.2500000   0.5402889   0.0898147  )
        46           C   tau(  46) = (   0.0833317   0.9568390   0.0313739  )
        47           C   tau(  47) = (   0.0833324   0.7112933   0.0313756  )
        48           C   tau(  48) = (   0.2500000   0.7858367   0.0898149  )
        49           Mo  tau(  49) = (   0.6402314   0.3595449  -0.1465471  )
        50           Mo  tau(  50) = (   0.3597675   0.0381785  -0.2091611  )
        51           Mo  tau(  51) = (   0.4735655   0.2837244  -0.2091614  )
        52           Mo  tau(  52) = (   0.5264343   0.1139952  -0.1465480  )
        53           Mo  tau(  53) = (   0.3597677   0.1887146  -0.0879712  )
        54           Mo  tau(  54) = (   0.6402319   0.0220687  -0.0292901  )
        55           Mo  tau(  55) = (   0.5264342   0.2676168  -0.0292879  )
        56           Mo  tau(  56) = (   0.4735658   0.4342627  -0.0879704  )
        57           C   tau(  57) = (   0.5833337   0.2361321  -0.1486346  )
        58           C   tau(  58) = (   0.4166657   0.1615882  -0.2070755  )
        59           C   tau(  59) = (   0.4166661   0.4071366  -0.2070737  )
        60           C   tau(  60) = (   0.5833337   0.4816800  -0.1486344  )
[...]
       130           C   tau( 130) = (   0.7499987   0.6526822  -0.2070755  )
       131           C   tau( 131) = (   0.7499991   0.8982306  -0.2070737  )
       132           C   tau( 132) = (   0.9166667   0.9727740  -0.1486344  )
       133           Mo  tau( 133) = (   0.9735644   0.6637017   0.0919023  )
       134           Mo  tau( 134) = (   0.6931002   0.8334292   0.0292882  )
       135           Mo  tau( 135) = (   0.8068985   0.5878811   0.0292879  )
       136           Mo  tau( 136) = (   0.8597670   0.9092460   0.0919014  )
       137           Mo  tau( 137) = (   0.6931008   0.4928714   0.1504781  )
       138           Mo  tau( 138) = (   0.9735647   0.8173194   0.2091592  )
       139           Mo  tau( 139) = (   0.8597672   0.5717735   0.2091614  )
       140           Mo  tau( 140) = (   0.8068989   0.7384194   0.1504790  )
       141           C   tau( 141) = (   0.9166667   0.5402889   0.0898147  )
       142           C   tau( 142) = (   0.7499984   0.9568390   0.0313739  )
       143           C   tau( 143) = (   0.7499991   0.7112933   0.0313756  )
       144           C   tau( 144) = (   0.9166667   0.7858367   0.0898149  )

     DFT-D3 Dispersion Correction (3-body terms):
       Reference C6 values for interpolation:

         atom   Coordination number   C6
         C          0.000            98.23
         C          0.987            86.49
         C          1.998            58.72
         C          2.999            51.56
         C          3.984            36.41
         Mo         0.000          1691.79
         Mo         1.942          1004.01
         Mo        11.056           674.22

       Values used:

         atom   Coordination number  R0_AB[au]  C6      C8
         Mo        10.971            3.547    674.22  77634.20
         Mo         8.283            3.547    674.22  77634.20
         Mo         8.283            3.547    674.22  77634.20
         Mo        10.971            3.547    674.22  77634.20
         Mo        12.694            3.547    674.22  77634.20
         Mo        13.583            3.547    674.22  77634.20
         Mo        13.583            3.547    674.22  77634.20
         Mo        12.695            3.547    674.22  77634.20
         C          5.031            2.750     36.41   1053.14
         C          4.020            2.750     36.62   1059.01
         C          4.020            2.750     36.62   1059.01
         C          5.031            2.750     36.41   1053.14
         Mo        12.634            3.547    674.22  77634.20
         Mo        13.578            3.547    674.22  77634.20
[...]
     atom   20 type  1   force =    -0.00002801    0.00002177   -0.00000909
     atom   21 type  2   force =    -0.00000232    0.00000197   -0.00000759
     atom   22 type  2   force =     0.00000432   -0.00000560   -0.00000865
     atom   23 type  2   force =     0.00000190   -0.00000028   -0.00001400
     atom   24 type  2   force =    -0.00000583    0.00000025   -0.00000696
     atom   25 type  1   force =     0.00000000    0.00000000    0.00000000
     atom   26 type  1   force =     0.00000000    0.00000000    0.00000000
     atom   27 type  1   force =     0.00000000    0.00000000    0.00000000
     atom   28 type  1   force =     0.00000000    0.00000000    0.00000000
     atom   29 type  1   force =     0.00000000    0.00000000    0.00000000
     atom   30 type  1   force =     0.00000000    0.00000000    0.00000000
     atom   31 type  1   force =     0.00000000    0.00000000    0.00000000
     atom   32 type  1   force =     0.00000000    0.00000000    0.00000000
     atom   33 type  2   force =     0.00000000    0.00000000    0.00000000
     atom   34 type  2   force =     0.00000000    0.00000000    0.00000000
     atom   35 type  2   force =     0.00000000    0.00000000    0.00000000
     atom   36 type  2   force =     0.00000000    0.00000000    0.00000000
     atom   37 type  1   force =     0.00000840   -0.00000873   -0.00001355
     atom   38 type  1   force =     0.00004174    0.00000418   -0.00003170
     atom   39 type  1   force =    -0.00002607   -0.00000835   -0.00001950
     atom   40 type  1   force =    -0.00003874    0.00000150   -0.00002274
     atom   41 type  1   force =     0.00004810    0.00000114   -0.00001571
     atom   42 type  1   force =     0.00001225   -0.00000630   -0.00000050
     atom   43 type  1   force =    -0.00003755   -0.00001272   -0.00001928
     atom   44 type  1   force =    -0.00002558   -0.00001059   -0.00001561
     atom   45 type  2   force =    -0.00000651   -0.00000399   -0.00000496
     atom   46 type  2   force =     0.00000531    0.00000166   -0.00001270
     atom   47 type  2   force =     0.00000330   -0.00000396   -0.00000831
     atom   48 type  2   force =    -0.00000517   -0.00000037   -0.00000502
     atom   49 type  1   force =     0.00000000    0.00000000    0.00000000
     atom   50 type  1   force =     0.00000000    0.00000000    0.00000000
     atom   51 type  1   force =     0.00000000    0.00000000    0.00000000
     atom   52 type  1   force =     0.00000000    0.00000000    0.00000000
     atom   53 type  1   force =     0.00000000    0.00000000    0.00000000
     atom   54 type  1   force =     0.00000000    0.00000000    0.00000000
     atom   55 type  1   force =     0.00000000    0.00000000    0.00000000
     atom   56 type  1   force =     0.00000000    0.00000000    0.00000000
     atom   57 type  2   force =     0.00000000    0.00000000    0.00000000
     atom   58 type  2   force =     0.00000000    0.00000000    0.00000000
     atom   59 type  2   force =     0.00000000    0.00000000    0.00000000
     atom   60 type  2   force =     0.00000000    0.00000000    0.00000000
[...]
     atom  130 type  2   force =     0.00000000    0.00000000    0.00000000
     atom  131 type  2   force =     0.00000000    0.00000000    0.00000000
     atom  132 type  2   force =     0.00000000    0.00000000    0.00000000
     atom  133 type  1   force =     0.00006133   -0.00000524   -0.00000904
     atom  134 type  1   force =     0.00003410    0.00001626   -0.00001861
     atom  135 type  1   force =    -0.00000458   -0.00000994   -0.00001088
     atom  136 type  1   force =    -0.00001799    0.00000775   -0.00001839
     atom  137 type  1   force =     0.00003633   -0.00000065   -0.00000187
     atom  138 type  1   force =     0.00003772   -0.00001214   -0.00000729
     atom  139 type  1   force =    -0.00001215   -0.00001942    0.00000021
     atom  140 type  1   force =    -0.00000884    0.00000724   -0.00000479
     atom  141 type  2   force =     0.00000777   -0.00000510   -0.00000325
     atom  142 type  2   force =     0.00000593    0.00000241   -0.00000941
     atom  143 type  2   force =     0.00000480   -0.00000268   -0.00000506
     atom  144 type  2   force =     0.00000688   -0.00000097   -0.00000362

     DFT-D3 dispersion contribution to forces:
     atom    1 type  1   force =    -0.00016882   -0.00025174    0.00633429
     atom    2 type  1   force =    -0.00011485    0.00014942    0.00685958
     atom    3 type  1   force =     0.00011489    0.00014944    0.00685961
     atom    4 type  1   force =     0.00016883   -0.00025176    0.00633430
     atom    5 type  1   force =    -0.00025474   -0.00011434    0.00458579
     atom    6 type  1   force =    -0.00011381    0.00023058    0.00149173
     atom    7 type  1   force =     0.00011378    0.00023062    0.00149162
     atom    8 type  1   force =     0.00025477   -0.00011434    0.00458578
     atom    9 type  2   force =     0.00018351   -0.00005248    0.00227872
     atom   10 type  2   force =    -0.00007441   -0.00003057    0.00259138
     atom   11 type  2   force =     0.00007441   -0.00003054    0.00259139
     atom   12 type  2   force =    -0.00018351   -0.00005248    0.00227873
     atom   13 type  1   force =    -0.00010954   -0.00022332   -0.00484907
     atom   14 type  1   force =     0.00005687    0.00015502   -0.00210268
     atom   15 type  1   force =    -0.00005670    0.00015502   -0.00210277
     atom   16 type  1   force =     0.00010953   -0.00022334   -0.00484890
     atom   17 type  1   force =     0.00004149    0.00003955   -0.00614902
     atom   18 type  1   force =     0.00011484    0.00010053   -0.00838002
     atom   19 type  1   force =    -0.00011475    0.00010048   -0.00837995
     atom   20 type  1   force =    -0.00004144    0.00003962   -0.00614908
     atom   21 type  2   force =     0.00023393    0.00004118   -0.00190528
     atom   22 type  2   force =    -0.00000863   -0.00004365   -0.00075537
     atom   23 type  2   force =     0.00000867   -0.00004364   -0.00075541
     atom   24 type  2   force =    -0.00023390    0.00004118   -0.00190523
     atom   25 type  1   force =    -0.00016883   -0.00025179    0.00633431
     atom   26 type  1   force =    -0.00011485    0.00014941    0.00685961
     atom   27 type  1   force =     0.00011491    0.00014941    0.00685962
     atom   28 type  1   force =     0.00016885   -0.00025178    0.00633434
     atom   29 type  1   force =    -0.00025472   -0.00011440    0.00458581
     atom   30 type  1   force =    -0.00011377    0.00023061    0.00149173
     atom   31 type  1   force =     0.00011382    0.00023057    0.00149161
     atom   32 type  1   force =     0.00025480   -0.00011439    0.00458577
     atom   33 type  2   force =     0.00018351   -0.00005250    0.00227873
     atom   34 type  2   force =    -0.00007441   -0.00003058    0.00259139
     atom   35 type  2   force =     0.00007441   -0.00003055    0.00259137
     atom   36 type  2   force =    -0.00018351   -0.00005249    0.00227871
     atom   37 type  1   force =    -0.00010952   -0.00022334   -0.00484900
     atom   38 type  1   force =     0.00005689    0.00015498   -0.00210281
     atom   39 type  1   force =    -0.00005674    0.00015499   -0.00210269
     atom   40 type  1   force =     0.00010960   -0.00022336   -0.00484906
     atom   41 type  1   force =     0.00004152    0.00003953   -0.00614906
     atom   42 type  1   force =     0.00011479    0.00010047   -0.00838002
     atom   43 type  1   force =    -0.00011479    0.00010046   -0.00837998
     atom   44 type  1   force =    -0.00004140    0.00003946   -0.00614907
     atom   45 type  2   force =     0.00023393    0.00004120   -0.00190525
     atom   46 type  2   force =    -0.00000862   -0.00004366   -0.00075538
     atom   47 type  2   force =     0.00000870   -0.00004368   -0.00075538
     atom   48 type  2   force =    -0.00023392    0.00004114   -0.00190524
     atom   49 type  1   force =    -0.00016882   -0.00025176    0.00633426
     atom   50 type  1   force =    -0.00011485    0.00014941    0.00685961
     atom   51 type  1   force =     0.00011489    0.00014943    0.00685962
     atom   52 type  1   force =     0.00016881   -0.00025175    0.00633430
     atom   53 type  1   force =    -0.00025474   -0.00011434    0.00458582
     atom   54 type  1   force =    -0.00011382    0.00023061    0.00149169
     atom   55 type  1   force =     0.00011375    0.00023061    0.00149160
     atom   56 type  1   force =     0.00025471   -0.00011434    0.00458579
     atom   57 type  2   force =     0.00018350   -0.00005249    0.00227872
     atom   58 type  2   force =    -0.00007441   -0.00003058    0.00259138
     atom   59 type  2   force =     0.00007440   -0.00003054    0.00259139
     atom   60 type  2   force =    -0.00018352   -0.00005249    0.00227871
[...]
     atom  130 type  2   force =    -0.00007441   -0.00003058    0.00259138
     atom  131 type  2   force =     0.00007440   -0.00003055    0.00259137
     atom  132 type  2   force =    -0.00018352   -0.00005248    0.00227870
     atom  133 type  1   force =    -0.00010943   -0.00022337   -0.00484904
     atom  134 type  1   force =     0.00005676    0.00015498   -0.00210277
     atom  135 type  1   force =    -0.00005680    0.00015495   -0.00210287
     atom  136 type  1   force =     0.00010952   -0.00022337   -0.00484898
     atom  137 type  1   force =     0.00004142    0.00003951   -0.00614906
     atom  138 type  1   force =     0.00011496    0.00010042   -0.00837994
     atom  139 type  1   force =    -0.00011488    0.00010038   -0.00837992
     atom  140 type  1   force =    -0.00004146    0.00003952   -0.00614906
     atom  141 type  2   force =     0.00023394    0.00004118   -0.00190530
     atom  142 type  2   force =    -0.00000867   -0.00004366   -0.00075541
     atom  143 type  2   force =     0.00000864   -0.00004366   -0.00075540
     atom  144 type  2   force =    -0.00023392    0.00004115   -0.00190532

     Total force =     0.006442     Total SCF correction =     0.000295

     Computing stress (Cartesian axis) and pressure

     negative rho (up, down):  1.632E-03 0.000E+00
          total   stress  (Ry/bohr**3)                   (kbar)     P=      -20.12
  -0.00014361   0.00000000   0.00000000          -21.13        0.00        0.00
   0.00000000  -0.00026680   0.00000000            0.00      -39.25        0.00
   0.00000000   0.00000000   0.00000000            0.00        0.00        0.00

     Energy error            =      9.6E-05 Ry
     Gradient error          =      9.8E-04 Ry/Bohr

     bfgs converged in  22 scf cycles and  21 bfgs steps
     (criteria: energy <  1.0E-04 Ry, force <  1.0E-03 Ry/Bohr)

     End of BFGS Geometry Optimization

     Final energy             =  -35819.7371512836 Ry

     File ./outdir/pwscf.bfgs deleted, as requested
Begin final coordinates

ATOMIC_POSITIONS (angstrom)
Mo            4.7791909270        5.5990382523       -2.2821140517    0   0   0
Mo            0.4116479709        0.5945370910       -3.2571756197    0   0   0
Mo            2.1837751964        4.4183180273       -3.2571803522    0   0   0
Mo            3.0070779426        1.7751983448       -2.2821282600    0   0   0
Mo            0.4116515803        2.9387717252       -1.3699376609    0   0   0
Mo            4.7791996562        0.3436665209       -0.4561225132    0   0   0
Mo            3.0070766482        4.1674802144       -0.4560880931    0   0   0
Mo            2.1837803594        6.7625851270       -1.3699242977    0   0   0
C             3.8931474012        3.6771840485       -2.3146226317    0   0   0
C             1.2976988819        2.5163437255       -3.2246966173    0   0   0
C             1.2977044334        6.3401623894       -3.2246696625    0   0   0
C             3.8931471683        7.5009940463       -2.3146194733    0   0   0
Mo            4.7538039892        2.6771277138        1.3959961093
Mo            0.4098230212        5.3332800900        0.4132677714
Mo            2.1856564212        1.5094886567        0.4132921321
Mo            3.0325570723        6.5009595590        1.3959384216
Mo            0.5042301691       -0.0622026204        2.2380971135
Mo            5.1885937185        5.1455172975        3.0088173570
Mo            2.5975745181        1.3217632969        3.0088007770
Mo            2.0911468211        3.7616524011        2.2381579574
C             3.9130499159        0.7608693956        1.5454188250
C             1.3235665851        7.2386097808        0.4307478104
C             1.2718816130        3.4148000061        0.4307654168
C             3.8731898895        4.5846207900        1.5453426585
Mo            4.7791861810       13.2466333753       -2.2821140517    0   0   0
Mo            0.4116432249        8.2421322140       -3.2571756197    0   0   0
Mo            2.1837704504       12.0659131503       -3.2571803522    0   0   0
Mo            3.0070731966        9.4227934677       -2.2821282600    0   0   0
Mo            0.4116468343       10.5863668482       -1.3699376609    0   0   0
Mo            4.7791949102        7.9912616439       -0.4561225132    0   0   0
Mo            3.0070719022       11.8150753374       -0.4560880931    0   0   0
Mo            2.1837756133       14.4101802500       -1.3699242977    0   0   0
C             3.8931426552       11.3247791715       -2.3146226317    0   0   0
C             1.2976941359       10.1639388485       -3.2246966173    0   0   0
C             1.2976996874       13.9877575124       -3.2246696625    0   0   0
C             3.8931424222       15.1485891692       -2.3146194733    0   0   0
Mo            4.7537865380       10.3247432689        1.3959693116
Mo            0.4098272821       12.9808562329        0.4132950622
Mo            2.1856344051        9.1570647843        0.4132723732
Mo            3.0325121167       14.1485277181        1.3960098738
Mo            0.5042239405        7.5853519815        2.2381141433
Mo            5.1885963906       12.7930561300        3.0088269599
Mo            2.5976599903        8.9692845521        3.0087790350
Mo            2.0912217506       11.4091307808        2.2381260102
C             3.9130949798        8.4084650857        1.5453609047
C             1.3235655383       14.8862177613        0.4307351402
C             1.2718950241       11.0623906028        0.4307380771
C             3.8732084362       12.2322318993        1.5453441249
Mo            9.9700470660        5.5990382523       -2.2821140517    0   0   0
Mo            5.6025041099        0.5945370910       -3.2571756197    0   0   0
Mo            7.3746313354        4.4183180273       -3.2571803522    0   0   0
Mo            8.1979340816        1.7751983448       -2.2821282600    0   0   0
Mo            5.6025077193        2.9387717252       -1.3699376609    0   0   0
Mo            9.9700557952        0.3436665209       -0.4561225132    0   0   0
Mo            8.1979327872        4.1674802144       -0.4560880931    0   0   0
Mo            7.3746364984        6.7625851270       -1.3699242977    0   0   0
C             9.0840035402        3.6771840485       -2.3146226317    0   0   0
C             6.4885550209        2.5163437255       -3.2246966173    0   0   0
C             6.4885605724        6.3401623894       -3.2246696625    0   0   0
C             9.0840033073        7.5009940463       -2.3146194733    0   0   0
[...]
C            11.6794064139       10.1639388485       -3.2246966173    0   0   0
C            11.6794119654       13.9877575124       -3.2246696625    0   0   0
C            14.2748547002       15.1485891692       -2.3146194733    0   0   0
Mo           15.1355114037       10.3247635887        1.3959946839
Mo           10.7915065514       12.9808546308        0.4132760032
Mo           12.5673508918        9.1570709904        0.4133161766
Mo           13.4142415532       14.1485410629        1.3959777704
Mo           10.8858917452        7.5853230710        2.2381136577
Mo           15.5704886030       12.7931169606        3.0087867580
Mo           12.9792745303        8.9693083835        3.0087607286
Mo           12.4728849474       11.4092023904        2.2381298544
C            14.2948196861        8.4084766438        1.5454256445
C            11.7052638818       14.8862039898        0.4307479654
C            11.6535964458       11.0623926503        0.4307396444
C            14.2549379598       12.2322507984        1.5454495608
End final coordinates

     Writing all to output data dir ./outdir/pwscf.save/

     General routines

     Parallel routines

   This run was terminated on:  15:28:39  14Apr2024

   JOB DONE.
Application 12055170 resources: utime ~8375631s, stime ~87625s, Rss ~2894240, inblocks ~0, outblocks ~51264328