     Program PWSCF v.7.3 starts on 28Mar2024 at 12:15:43

     Waiting for input...
     Reading input from standard input
Warning: card &CELL ignored
Warning: card / ignored

     Current dimensions of program PWSCF are:
     Max number of different atomic species (ntypx) = 10
     Max number of k-points (npk) =  40000
     Max angular momentum in pseudopotentials (lmaxx) =  4
     file Mo.pbe-spn-kjpaw_psl.1.0.0.UPF: wavefunction(s)  4S 4D renormalized
     file S.pbe-n-kjpaw_psl.1.0.0.UPF: wavefunction(s)  3S 3P renormalized
     file Pt.pbe-spfn-kjpaw_psl.1.0.0.UPF: wavefunction(s)  5P 4F renormalized
     file Pd.pbe-spn-kjpaw_psl.1.0.0.UPF: wavefunction(s)  4S 5S 4D renormalized

     R & G space division:  proc/nbgrp/npool/nimage =      36
     Subspace diagonalization in iterative solution of the eigenvalue problem:
     one sub-group per band group will be used

     Using Slab Decomposition

     bravais-lattice index     =            0
     lattice parameter (alat)  =      23.8395  a.u.
     unit-cell volume          =   28182.8498 (a.u.)^3
     number of atoms/cell      =          147
     number of atomic types    =            4
     number of electrons       =      1330.00
     number of Kohn-Sham states=          798
     kinetic-energy cutoff     =      77.0000  Ry
     charge density cutoff     =     539.0000  Ry
     scf convergence threshold =      1.0E-06
     mixing beta               =       0.2000
     number of iterations used =            8  plain     mixing
     energy convergence thresh.=      1.0E-04
     force convergence thresh. =      1.0E-03
     Exchange-correlation= SLA  PW   PBX  PBC
                           (   1   4   3   4   0   0   0)
     nstep                     =         1000

     Effective Screening Medium Method
     Boundary Conditions: Vacuum-Slab-Vacuum
     total charge in unit cell        =   0.0000
     grid points for fit at edges     =        4

     celldm(1)=  23.839504  celldm(2)=   0.000000  celldm(3)=   0.000000
     celldm(4)=   0.000000  celldm(5)=   0.000000  celldm(6)=   0.000000

     crystal axes: (cart. coord. in units of alat)
               a(1) = (   1.000000   0.000000   0.000000 )
               a(2) = (  -0.500001   0.866026   0.000000 )
               a(3) = (   0.000000   0.000000   2.401941 )

     reciprocal axes: (cart. coord. in units 2 pi/alat)
               b(1) = (  1.000000  0.577351  0.000000 )
               b(2) = (  0.000000  1.154700  0.000000 )
               b(3) = (  0.000000  0.000000  0.416330 )

     PseudoPot. # 1 for Mo read from file:
     ./pseudo/Mo.pbe-spn-kjpaw_psl.1.0.0.UPF
     MD5 check sum: 317bf72632116215fd98f72de1686f13
     Pseudo is Projector augmented-wave + core cor, Zval = 14.0
     Generated using 'atomic' code by A. Dal Corso  v.7.2
     Shape of augmentation charge: PSQ
     Using radial grid of 1229 points,  6 beta functions with:
                l(1) =   0
                l(2) =   0
                l(3) =   1
                l(4) =   1
                l(5) =   2
                l(6) =   2
     Q(r) pseudized with 0 coefficients

     PseudoPot. # 2 for S  read from file:
     ./pseudo/S.pbe-n-kjpaw_psl.1.0.0.UPF
     MD5 check sum: 8b7b5302570d38d5e87fed6a1065abda
     Pseudo is Projector augmented-wave + core cor, Zval =  6.0
     Generated using 'atomic' code by A. Dal Corso  v.7.2
     Shape of augmentation charge: PSQ
     Using radial grid of 1151 points,  6 beta functions with:
                l(1) =   0
                l(2) =   0
                l(3) =   1
                l(4) =   1
                l(5) =   2
                l(6) =   2
     Q(r) pseudized with 0 coefficients

     PseudoPot. # 3 for Pt read from file:
     ./pseudo/Pt.pbe-spfn-kjpaw_psl.1.0.0.UPF
     MD5 check sum: 620096ebf4e6ebacc94de60fd67efcb5
     Pseudo is Projector augmented-wave + core cor, Zval = 32.0
     Generated using 'atomic' code by A. Dal Corso  v.7.2
     Shape of augmentation charge: PSQ
     Using radial grid of 1277 points,  8 beta functions with:
                l(1) =   0
                l(2) =   0
                l(3) =   1
                l(4) =   1
                l(5) =   2
                l(6) =   2
                l(7) =   3
                l(8) =   3
     Q(r) pseudized with 0 coefficients

     PseudoPot. # 4 for Pd read from file:
     ./pseudo/Pd.pbe-spn-kjpaw_psl.1.0.0.UPF
     MD5 check sum: a60571a671f2502b8a6a4569d20a6edb
     Pseudo is Projector augmented-wave + core cor, Zval = 18.0
     Generated using 'atomic' code by A. Dal Corso  v.7.2
     Shape of augmentation charge: PSQ
     Using radial grid of 1235 points,  6 beta functions with:
                l(1) =   0
                l(2) =   0
                l(3) =   1
                l(4) =   1
                l(5) =   2
                l(6) =   2
     Q(r) pseudized with 0 coefficients

     atomic species   valence    mass     pseudopotential
     Mo               14.00    95.95000     Mo( 1.00)
     S                 6.00    32.06000     S ( 1.00)
     Pt               32.00   195.08400     Pt( 1.00)
     Pd               18.00   106.42000     Pd( 1.00)

     No symmetry found

   Cartesian axes

     site n.     atom                  positions (alat units)
         1        Mo     tau(   1) = (   0.1245154   0.2145629   0.4838883  )
         2        Mo     tau(   2) = (   0.1250004   0.0721694  -0.4825273  )
         3        Mo     tau(   3) = (   0.0000425   0.1442456   0.0000619  )
         4        S      tau(   4) = (   0.0000004   0.0000006  -0.6064556  )
         5        S      tau(   5) = (   0.1250289   0.0721378  -0.1240905  )
         6        S      tau(   6) = (   0.0004348   0.1425943   0.3589312  )
         7        S      tau(   7) = (   0.0000004   0.0000005  -0.3584711  )
         8        S      tau(   8) = (   0.1250590   0.0720566   0.1242171  )
         9        S      tau(   9) = (  -0.0003812   0.1430770   0.6082257  )
        10        Mo     tau(  10) = (  -0.0007514   0.4316905   0.4830160  )
        11        Mo     tau(  11) = (   0.0000001   0.2886759  -0.4825273  )
        12        Mo     tau(  12) = (  -0.1249521   0.3607434   0.0000147  )
        13        S      tau(  13) = (  -0.1249999   0.2165071  -0.6064556  )
        14        S      tau(  14) = (   0.0000696   0.2885943  -0.1240368  )
        15        S      tau(  15) = (  -0.1243620   0.3589267   0.3580713  )
        16        S      tau(  16) = (  -0.1249998   0.2165070  -0.3584711  )
        17        S      tau(  17) = (   0.0000810   0.2885804   0.1243185  )
        18        S      tau(  18) = (  -0.1257647   0.3594678   0.6068568  )
        19        Mo     tau(  19) = (  -0.1258132   0.6483948   0.4805624  )
        20        Mo     tau(  20) = (  -0.1250002   0.5051824  -0.4825273  )
        21        Mo     tau(  21) = (  -0.2499883   0.5772682  -0.0000419  )
        22        S      tau(  22) = (  -0.2500002   0.4330136  -0.6064556  )
        23        S      tau(  23) = (  -0.1249379   0.5050979  -0.1240947  )
        24        S      tau(  24) = (  -0.2506625   0.5759186   0.3568926  )
        25        S      tau(  25) = (  -0.2500001   0.4330135  -0.3584711  )
        26        S      tau(  26) = (  -0.1250441   0.5050577   0.1241569  )
        27        S      tau(  27) = (  -0.2487337   0.5760113   0.6060824  )
        28        Mo     tau(  28) = (   0.2499313  -0.0010413   0.4821860  )
        29        Mo     tau(  29) = (  -0.2500004   0.7216889  -0.4825273  )
        30        Mo     tau(  30) = (  -0.3749657   0.7937917  -0.0000260  )
        31        S      tau(  31) = (  -0.3750004   0.6495201  -0.6064556  )
        32        S      tau(  32) = (  -0.2499441   0.7216334  -0.1241298  )
        33        S      tau(  33) = (  -0.3753987   0.7929794   0.3583883  )
        34        S      tau(  34) = (  -0.3750004   0.6495200  -0.3584711  )
        35        S      tau(  35) = (  -0.2499697   0.7216106   0.1241587  )
        36        S      tau(  36) = (  -0.3740548   0.7924718   0.6070428  )
        37        Mo     tau(  37) = (   0.3754903   0.2138312   0.4824355  )
        38        Mo     tau(  38) = (   0.3750004   0.0721694  -0.4825273  )
        39        Mo     tau(  39) = (   0.2500190   0.1443049   0.0000251  )
        40        S      tau(  40) = (   0.2500004   0.0000006  -0.6064556  )
        41        S      tau(  41) = (   0.3750395   0.0721655  -0.1240658  )
        42        S      tau(  42) = (   0.2492498   0.1434297   0.3583124  )
        43        S      tau(  43) = (   0.2500004   0.0000005  -0.3584711  )
        44        S      tau(  44) = (   0.3749990   0.0721134   0.1242290  )
        45        S      tau(  45) = (   0.2505186   0.1425747   0.6070242  )
        46        Mo     tau(  46) = (   0.2489619   0.4303408   0.4857216  )
        47        Mo     tau(  47) = (   0.2500001   0.2886759  -0.4825273  )
        48        Mo     tau(  48) = (   0.1250526   0.3607813   0.0000840  )
        49        S      tau(  49) = (   0.1250001   0.2165071  -0.6064556  )
        50        S      tau(  50) = (   0.2500419   0.2886606  -0.1240379  )
        51        S      tau(  51) = (   0.1261759   0.3597087   0.3613462  )
        52        S      tau(  52) = (   0.1250002   0.2165070  -0.3584711  )
        53        S      tau(  53) = (   0.2500376   0.2886120   0.1243390  )
        54        S      tau(  54) = (   0.1185564   0.3555008   0.6138384  )
        55        Mo     tau(  55) = (   0.1202279   0.6507949   0.4802728  )
        56        Mo     tau(  56) = (   0.1249998   0.5051824  -0.4825273  )
        57        Mo     tau(  57) = (   0.0000374   0.5772595   0.0000671  )
        58        S      tau(  58) = (  -0.0000002   0.4330136  -0.6064556  )
        59        S      tau(  59) = (   0.1250566   0.5051315  -0.1240039  )
        60        S      tau(  60) = (  -0.0017492   0.5751181   0.3561394  )
[...]
       133        S      tau( 133) = (   0.4999999   0.4330135  -0.3584711  )
       134        S      tau( 134) = (   0.6249857   0.5051595   0.1242674  )
       135        S      tau( 135) = (   0.5084858   0.5722242   0.6106609  )
       136        Mo     tau( 136) = (   0.0003958  -0.0008070   0.4838665  )
       137        Mo     tau( 137) = (   0.4999996   0.7216889  -0.4825273  )
       138        Mo     tau( 138) = (   0.3750498   0.7937581   0.0000905  )
       139        S      tau( 139) = (   0.3749996   0.6495201  -0.6064556  )
       140        S      tau( 140) = (   0.5000109   0.7216246  -0.1240696  )
       141        S      tau( 141) = (   0.3755073   0.7912798   0.3612018  )
       142        S      tau( 142) = (   0.3749996   0.6495200  -0.3584711  )
       143        S      tau( 143) = (   0.5000873   0.7215932   0.1243026  )
       144        S      tau( 144) = (   0.3753273   0.8000111   0.6138078  )
       145        Pt     tau( 145) = (   0.2576892   0.4411371   0.7122167  )
       146        Pt     tau( 146) = (   0.3705587   0.6371970   0.7119237  )
       147        Pd     tau( 147) = (   0.3754958   0.2138669   0.7375951  )

     DFT-D3 Dispersion Correction (3-body terms):
       Reference C6 values for interpolation:

[...]
   -40.6838 -40.6763 -40.6739 -40.6682 -40.6669 -40.6664 -40.6549 -40.6506
   -40.6499 -40.6497 -40.6334 -40.6240 -40.6195 -40.6193 -40.6169 -40.6094
   -40.6010 -40.5984 -40.5918 -40.5803 -40.5762 -40.5643 -40.5589 -40.5509
   -40.5329 -40.4976 -20.2260 -19.9633 -19.9377 -19.9008 -19.7826 -19.7619
   -19.5766 -19.5503 -19.4998 -19.4935 -19.3687 -19.3500 -19.2989 -19.0352
   -18.8648 -18.8282 -18.8243 -18.8134 -18.8017 -18.8004 -18.7914 -18.7827
   -18.7084 -18.6905 -18.6803 -18.6700 -18.6656 -18.6623 -18.6263 -18.6115
   -18.5756 -18.5568 -18.5511 -18.5206 -18.5156 -18.5003 -18.4821 -18.4668
   -18.4480 -18.4310 -18.3976 -18.3831 -18.3465 -18.3302 -18.3051 -18.2893
   -18.2694 -18.2563 -18.2219 -18.2096 -18.2015 -18.1924 -18.1921 -18.1919
   -18.1919 -18.1813 -18.1578 -18.1544 -18.1242 -18.1204 -18.1164 -18.1116
   -18.1111 -18.0984 -18.0872 -18.0820 -18.0662 -18.0562 -18.0547 -18.0398
   -18.0151 -18.0126 -18.0104 -18.0055 -17.9949 -17.9899 -17.9582 -17.9476
   -17.9392 -17.9309 -17.9287 -17.9287 -17.9011 -17.8883 -17.8757 -17.8692
   -17.8688 -17.8596 -17.8533 -17.8530 -17.8515 -17.8457 -17.8108 -17.8083
   -17.7619 -17.7444 -12.3036 -12.1481 -12.0004 -11.8215 -11.7463 -11.6896
   -11.6254 -11.5759 -11.5442 -11.5380 -11.5366 -11.5324 -11.5272 -11.5086
   -11.5002 -11.4643 -11.4516 -11.4417 -11.4378 -11.4186 -11.4032 -11.3778
   -11.3610 -11.3468 -11.3390 -11.3296 -11.3217 -11.3216 -11.2797 -11.2769
   -11.2709 -11.2607 -11.2355 -11.2210 -11.2158 -11.2044 -11.1814 -11.1108
   -11.0926 -11.0788 -11.0583 -11.0386 -11.0221 -10.9990 -10.9914 -10.9813
   -10.9789 -10.9718 -10.9493 -10.9413 -10.9243 -10.9130 -10.8974 -10.8957
   -10.8950 -10.8943 -10.8933 -10.8819 -10.8714 -10.8530 -10.8397 -10.8288
   -10.8236 -10.8191 -10.7920 -10.7031 -10.6682 -10.6546 -10.5716 -10.5655
   -10.5518 -10.5110 -10.4504 -10.3987 -10.3758 -10.2874 -10.2651 -10.2465
   -10.2049 -10.1765 -10.1694 -10.1688 -10.1336 -10.1078 -10.0738 -10.0640
   -10.0432 -10.0320 -10.0055 -10.0029  -9.9991  -9.9931  -9.9815  -9.9724
    -9.9620  -9.9525  -9.9447  -9.9354  -9.8904  -9.8757  -9.8658  -9.8399
    -9.8311  -9.8146  -9.7954  -9.7832  -9.7804  -9.7716  -9.7639  -9.7624
    -9.7382  -9.7341  -9.7281  -9.7220  -9.7105  -9.6819  -9.6720  -9.6448
    -9.6213  -9.6114  -9.6031  -9.5936  -9.5833  -9.5389  -9.5368  -9.5143
    -9.4506  -9.4418  -9.4368  -9.4028  -9.3774  -9.3593  -9.2797  -9.2740
    -9.2625  -9.2505  -9.2302  -9.2190  -9.2165  -9.2052  -9.1944  -9.1869
    -9.1732  -9.1658  -9.1451  -9.1256  -9.1106  -9.1056  -9.0996  -9.0926
    -9.0735  -9.0590  -9.0486  -9.0436  -9.0278  -9.0197  -9.0172  -9.0076
    -8.9999  -8.9970  -8.9872  -8.9737  -8.9574  -8.9493  -8.9405  -8.9303
[...]
    -3.8319  -3.7805  -3.7796  -3.7057  -3.6789  -3.6716  -3.6618  -3.6593
    -3.6549  -3.6443  -3.6440  -3.6374  -3.6229  -3.5860  -3.5807  -3.5702
    -3.5625  -3.5547  -3.5487  -3.5474  -3.5393  -3.5302  -3.5253  -3.5006
    -3.4901  -3.4667  -3.4482  -3.4423  -3.4287  -3.4132  -3.4116  -3.4073
    -3.3924  -3.3808  -3.3799  -3.3690  -3.3660  -3.3519  -3.3361  -3.3352
    -3.3348  -3.3339  -3.3261  -3.3050  -3.3036  -3.2915  -3.2871  -3.2787
    -3.2694  -3.2661  -3.2566  -3.2459  -3.2398  -3.2271  -3.2154  -3.1899
    -3.1851  -3.1722  -3.1568  -3.1314  -3.1284  -3.1174  -3.1007  -3.0913
    -3.0909  -3.0731  -3.0730  -3.0718  -3.0712  -3.0419  -3.0327  -3.0267
    -3.0252  -3.0229  -3.0132  -3.0039  -2.9933  -2.9878  -2.9818  -2.9740
    -2.9667  -2.9617  -2.9568  -2.9476  -2.9304  -2.9215  -2.9128  -2.8981
    -2.8858  -2.8715  -2.8690  -2.8635  -2.8203  -2.8154  -2.8032  -2.7782
    -2.7735  -2.7320  -2.7161  -2.7103  -2.7093  -2.7002  -2.6963  -2.6343
    -2.6252  -2.6068  -2.5807  -2.5701  -2.5638  -2.5591  -2.5334  -2.5073
    -2.4352  -2.4285  -2.4243  -2.3888  -2.3754  -2.3482

     the Fermi energy is    -4.7338 ev

!    total energy              =  -27706.45792166 Ry
     total all-electron energy =   -549111.720360 Ry
     estimated scf accuracy    <          5.6E-09 Ry
     smearing contrib. (-TS)   =      -0.00000007 Ry
     internal energy E=F+TS    =  -27706.45792159 Ry

     The total energy is F=E-TS. E is the sum of the following terms:
     one-electron contribution =  525267.94710168 Ry
     hartree contribution      = -262818.05450830 Ry
     xc contribution           =   -1610.30793975 Ry
     ewald contribution        = -271762.30013135 Ry
     DFT-D3 Dispersion         =      -4.06254729 Ry
     one-center paw contrib.   =  -16779.67989658 Ry

     convergence has been achieved in  10 iterations

     negative rho (up, down):  9.173E-04 0.000E+00

     Forces acting on atoms (cartesian axes, Ry/au):

     atom    1 type  1   force =    -0.00013038    0.00017852   -0.00006208
     atom    2 type  1   force =    -0.00000111   -0.00000383    0.00190207
     atom    3 type  1   force =     0.00000398   -0.00002236   -0.00003983
     atom    4 type  2   force =    -0.00000113   -0.00000151   -0.00328110
     atom    5 type  2   force =    -0.00000037   -0.00006526   -0.00000329
     atom    6 type  2   force =    -0.00038374    0.00005572   -0.00021178
     atom    7 type  2   force =    -0.00000150   -0.00001308    0.00151999
     atom    8 type  2   force =    -0.00001536   -0.00001046    0.00001128
     atom    9 type  2   force =    -0.00007691    0.00006850    0.00009663
     atom   10 type  1   force =    -0.00013183    0.00005262   -0.00026495
     atom   11 type  1   force =     0.00000002   -0.00000552    0.00190321
     atom   12 type  1   force =    -0.00000342   -0.00004667   -0.00000246
     atom   13 type  2   force =    -0.00000122   -0.00000163   -0.00328119
     atom   14 type  2   force =    -0.00001592   -0.00001582   -0.00002500
     atom   15 type  2   force =    -0.00024965   -0.00005905   -0.00000523
     atom   16 type  2   force =     0.00000413   -0.00001075    0.00152882
     atom   17 type  2   force =     0.00000437   -0.00004190   -0.00002577
     atom   18 type  2   force =     0.00007981    0.00017153    0.00003639
     atom   19 type  1   force =     0.00001874    0.00014289    0.00013928
     atom   20 type  1   force =    -0.00000049   -0.00000330    0.00190547
     atom   21 type  1   force =     0.00001422   -0.00002688    0.00001925
     atom   22 type  2   force =    -0.00000100   -0.00000171   -0.00328141
     atom   23 type  2   force =    -0.00000661   -0.00004305    0.00001762
     atom   24 type  2   force =     0.00024800   -0.00025325    0.00017720
     atom   25 type  2   force =     0.00000233   -0.00001026    0.00153311
     atom   26 type  2   force =     0.00000505   -0.00005536    0.00002225
     atom   27 type  2   force =     0.00012364   -0.00023143    0.00001068
     atom   28 type  1   force =    -0.00016912   -0.00008647    0.00003601
     atom   29 type  1   force =     0.00000030   -0.00000480    0.00190106
     atom   30 type  1   force =     0.00000838   -0.00001686    0.00003014
     atom   31 type  2   force =    -0.00000077   -0.00000173   -0.00328109
     atom   32 type  2   force =    -0.00000350   -0.00002568    0.00002916
     atom   33 type  2   force =    -0.00027164   -0.00026674   -0.00046219
     atom   34 type  2   force =     0.00000045   -0.00001284    0.00152231
     atom   35 type  2   force =     0.00000700   -0.00003692    0.00002376
     atom   36 type  2   force =    -0.00009086   -0.00025582    0.00006183
     atom   37 type  1   force =    -0.00005650   -0.00032549   -0.00081482
     atom   38 type  1   force =    -0.00000123   -0.00000579    0.00190383
     atom   39 type  1   force =    -0.00001034   -0.00003888   -0.00000765
     atom   40 type  2   force =    -0.00000135   -0.00000168   -0.00328096
     atom   41 type  2   force =     0.00000637   -0.00004552   -0.00000737
     atom   42 type  2   force =    -0.00038045   -0.00019566    0.00018006
     atom   43 type  2   force =    -0.00000296   -0.00001142    0.00151944
     atom   44 type  2   force =    -0.00000989   -0.00002286    0.00000263
     atom   45 type  2   force =    -0.00018623   -0.00021449    0.00029424
     atom   46 type  1   force =     0.00008333   -0.00002134   -0.00022270
     atom   47 type  1   force =    -0.00000244   -0.00000519    0.00190118
     atom   48 type  1   force =    -0.00000954   -0.00002228   -0.00002617
     atom   49 type  2   force =    -0.00000119   -0.00000198   -0.00328171
     atom   50 type  2   force =     0.00002081   -0.00002552   -0.00000682
     atom   51 type  2   force =    -0.00045544    0.00046004   -0.00078335
     atom   52 type  2   force =     0.00000509   -0.00001025    0.00151177
     atom   53 type  2   force =    -0.00001795   -0.00003191   -0.00001474
     atom   54 type  2   force =    -0.00006330    0.00025424   -0.00056844
     atom   55 type  1   force =     0.00006364    0.00013085   -0.00020982
     atom   56 type  1   force =    -0.00000150   -0.00000426    0.00189943
     atom   57 type  1   force =    -0.00000628   -0.00004504    0.00001032
     atom   58 type  2   force =    -0.00000134   -0.00000182   -0.00328142
     atom   59 type  2   force =    -0.00000629   -0.00001958    0.00000211
     atom   60 type  2   force =     0.00011806    0.00036946    0.00026862
[...]
     atom  133 type  2   force =    -0.00000664   -0.00000675    0.00152107
     atom  134 type  2   force =     0.00003264   -0.00002974    0.00003332
     atom  135 type  2   force =    -0.00019362   -0.00001507   -0.00023930
     atom  136 type  1   force =     0.00006774    0.00009408   -0.00007876
     atom  137 type  1   force =    -0.00000198   -0.00000422    0.00190245
     atom  138 type  1   force =    -0.00000595   -0.00002258    0.00004170
     atom  139 type  2   force =    -0.00000101   -0.00000146   -0.00328166
     atom  140 type  2   force =    -0.00001749   -0.00003277    0.00003598
     atom  141 type  2   force =    -0.00003428    0.00027363    0.00014967
     atom  142 type  2   force =    -0.00000612   -0.00000969    0.00152707
     atom  143 type  2   force =     0.00000664   -0.00001432   -0.00000213
     atom  144 type  2   force =    -0.00003421   -0.00009069   -0.00026749
     atom  145 type  3   force =     0.00051914    0.00025113    0.00053260
     atom  146 type  3   force =    -0.00026278    0.00040708   -0.00026094
     atom  147 type  4   force =     0.00057614    0.00024641    0.00026805

     Total force =     0.003331     Total SCF correction =     0.000550
     SCF correction compared to forces is large: reduce conv_thr to get better values
     Energy error            =      2.2E-05 Ry
     Gradient error          =      8.1E-04 Ry/Bohr

     bfgs converged in  21 scf cycles and  20 bfgs steps
     (criteria: energy <  1.0E-04 Ry, force <  1.0E-03 Ry/Bohr)

     End of BFGS Geometry Optimization

     Final energy             =  -27706.4579216608 Ry

     File ./outdir/pwscf.bfgs deleted, as requested
Begin final coordinates

ATOMIC_POSITIONS (angstrom)
Mo               1.5576166663        2.7046922100        6.1009380563
Mo               1.5769197498        0.9104407117       -6.0872367793    0   0   0
Mo               0.0003510622        1.8186559101        0.0013032587
S                0.0000044503        0.0000077495       -7.6506323570    0   0   0
S                1.5770210310        0.9091064577       -1.5649079704
S               -0.0025518279        1.7914445550        4.5254816242
S                0.0000053241        0.0000068460       -4.5222282367    0   0   0
S                1.5780541474        0.9087228869        1.5678484876
S               -0.0158888567        1.8057136770        7.6719813316
Mo              -0.0045550516        5.4413382917        6.0890949012
Mo               0.0000011799        3.6417399547       -6.0872367793    0   0   0
Mo              -1.5763148581        4.5499445467        0.0002616732
S               -1.5769141197        2.7313069925       -7.6506323570    0   0   0
S                0.0009866055        3.6397166955       -1.5643398424
S               -1.5639189196        4.5252527005        4.5115352777
S               -1.5769132459        2.7313060890       -4.5222282367    0   0   0
S                0.0005317234        3.6392973332        1.5681782434
S               -1.5829203006        4.5358316289        7.6513530462
Mo              -1.5828594319        8.1757373236        6.0620905604
Mo              -1.5769173901        6.3730391977       -6.0872367793    0   0   0
Mo              -3.1541182436        7.2816025498        0.0007178756
S               -3.1538326896        5.4626062355       -7.6506323570    0   0   0
S               -1.5764015898        6.3715880815       -1.5645031255
S               -3.1539539077        7.2667404223        4.4932638467
S               -3.1538318159        5.4626053320       -4.5222282367    0   0   0
S               -1.5774419949        6.3703934863        1.5670688018
S               -3.1383147271        7.2643178348        7.6373365429
Mo               3.1478079817       -0.0248789516        6.0843935678
Mo              -3.1538359601        9.1043384407       -6.0872367793    0   0   0
Mo              -4.7306646429       10.0132195788        0.0004072701
S               -4.7307512596        8.1939054785       -7.6506323570    0   0   0
S               -3.1535895386        9.1025729004       -1.5648593292
S               -4.7381844851       10.0122675989        4.5149200548
S               -4.7307503859        8.1939045750       -4.5222282367    0   0   0
S               -3.1540543776        9.1027436777        1.5676126898
S               -4.7234109278        9.9890151050        7.6587581627
Mo               4.7386878875        2.7016198704        6.1079737379
Mo               4.7307503218        0.9104407117       -6.0872367793    0   0   0
Mo               3.1541192347        1.8194538360        0.0004308617
S                3.1538350223        0.0000077495       -7.6506323570    0   0   0
S                4.7309416316        0.9086753482       -1.5649669653
S                3.1545290763        1.8105347920        4.5424574501
S                3.1538358961        0.0000068460       -4.5222282367    0   0   0
S                4.7307572064        0.9089893260        1.5676812123
S                3.0970833157        1.7650680374        7.6844460949
Mo               3.1267803645        5.4405472585        6.0877309525
Mo               3.1538317519        3.6417399547       -6.0872367793    0   0   0
Mo               1.5775506092        4.5502673534        0.0016807723
S                1.5769164523        2.7313069925       -7.6506323570    0   0   0
S                3.1540175450        3.6405790444       -1.5645254305
S                1.5747618583        4.5231937098        4.5351894977
S                1.5769173261        2.7313060890       -4.5222282367    0   0   0
S                3.1545224408        3.6395448137        1.5688247959
S                1.5294624057        4.4978812260        7.7156252606
Mo               1.5288666967        8.2052335514        6.0706377054
Mo               1.5769131819        6.3730391977       -6.0872367793    0   0   0
Mo               0.0004306796        7.2815318351        0.0018483751
S               -0.0000021176        5.4626062355       -7.6506323570    0   0   0
S                1.5773861734        6.3714502446       -1.5634168368
S               -0.0120001104        7.2567858113        4.4963741226
[...]
S                6.3076599001        5.4626053320       -4.5222282367    0   0   0
S                7.8837729247        6.3711811801        1.5683067075
S                6.4332551281        7.2227037580        7.6916765103
Mo               0.0023153542       -0.0144910633        6.1080216026
Mo               6.3076557559        9.1043384407       -6.0872367793    0   0   0
Mo               4.7308584422       10.0126847191        0.0009968878
S                4.7307404564        8.1939054785       -7.6506323570    0   0   0
S                6.3076116272        9.1025093205       -1.5648092841
S                4.7296899474        9.9764179132        4.5693047911
S                4.7307413301        8.1939045750       -4.5222282367    0   0   0
S                6.3078811800        9.1028914698        1.5680018754
S                4.7357587882       10.0786811355        7.7557584938
Pt               3.3260384401        5.4934576656        9.0937209892
Pt               4.6779359012        8.0235254228        8.9654471650
Pd               4.6369081443        2.9001262693        9.1017230075
End final coordinates

     Writing all to output data dir ./outdir/pwscf.save/ :
     XML data file, charge density, pseudopotentials, collected wavefunctions

     General routines

     Parallel routines

   This run was terminated on:  15: 6:18  29Mar2024

   JOB DONE.