     Program PWSCF v.7.3 starts on 14Mar2024 at  6: 4:51

     Waiting for input...
     Reading input from standard input
Warning: card &CELL ignored
Warning: card / ignored

     Current dimensions of program PWSCF are:
     Max number of different atomic species (ntypx) = 10
     Max number of k-points (npk) =  40000
     Max angular momentum in pseudopotentials (lmaxx) =  4
     file Mo.pbe-spn-kjpaw_psl.1.0.0.UPF: wavefunction(s)  4S 4D renormalized
     file S.pbe-n-kjpaw_psl.1.0.0.UPF: wavefunction(s)  3S 3P renormalized
     file Pt.pbe-spfn-kjpaw_psl.1.0.0.UPF: wavefunction(s)  5P 4F renormalized
     file Pd.pbe-spn-kjpaw_psl.1.0.0.UPF: wavefunction(s)  4S 5S 4D renormalized

     R & G space division:  proc/nbgrp/npool/nimage =      36
     Subspace diagonalization in iterative solution of the eigenvalue problem:
     one sub-group per band group will be used

     Using Slab Decomposition

     bravais-lattice index     =            0
     lattice parameter (alat)  =      23.8199  a.u.
     unit-cell volume          =   33861.0370 (a.u.)^3
     number of atoms/cell      =          194
     number of atomic types    =            4
     number of electrons       =      1714.00
     number of Kohn-Sham states=         1028
     kinetic-energy cutoff     =      77.0000  Ry
     charge density cutoff     =     539.0000  Ry
     scf convergence threshold =      1.0E-06
     mixing beta               =       0.2000
     number of iterations used =            8  plain     mixing
     energy convergence thresh.=      1.0E-04
     force convergence thresh. =      1.0E-03
     Exchange-correlation= SLA  PW   PBX  PBC
                           (   1   4   3   4   0   0   0)
     nstep                     =         1000

     Effective Screening Medium Method
     Boundary Conditions: Vacuum-Slab-Vacuum
     total charge in unit cell        =   0.0000
     grid points for fit at edges     =        4

     celldm(1)=  23.819920  celldm(2)=   0.000000  celldm(3)=   0.000000
     celldm(4)=   0.000000  celldm(5)=   0.000000  celldm(6)=   0.000000

     crystal axes: (cart. coord. in units of alat)
               a(1) = (   1.000000   0.000000   0.000000 )
               a(2) = (  -0.499999   0.866026   0.000000 )
               a(3) = (   0.000000   0.000000   2.893000 )

     reciprocal axes: (cart. coord. in units 2 pi/alat)
               b(1) = (  1.000000  0.577349  0.000000 )
               b(2) = (  0.000000  1.154700  0.000000 )
               b(3) = (  0.000000  0.000000  0.345662 )

     PseudoPot. # 1 for Mo read from file:
     ./pseudo/Mo.pbe-spn-kjpaw_psl.1.0.0.UPF
     MD5 check sum: 317bf72632116215fd98f72de1686f13
     Pseudo is Projector augmented-wave + core cor, Zval = 14.0
     Generated using 'atomic' code by A. Dal Corso  v.7.2
     Shape of augmentation charge: PSQ
     Using radial grid of 1229 points,  6 beta functions with:
                l(1) =   0
                l(2) =   0
                l(3) =   1
                l(4) =   1
                l(5) =   2
                l(6) =   2
     Q(r) pseudized with 0 coefficients

     PseudoPot. # 2 for S  read from file:
     ./pseudo/S.pbe-n-kjpaw_psl.1.0.0.UPF
     MD5 check sum: 8b7b5302570d38d5e87fed6a1065abda
     Pseudo is Projector augmented-wave + core cor, Zval =  6.0
     Generated using 'atomic' code by A. Dal Corso  v.7.2
     Shape of augmentation charge: PSQ
     Using radial grid of 1151 points,  6 beta functions with:
                l(1) =   0
                l(2) =   0
                l(3) =   1
                l(4) =   1
                l(5) =   2
                l(6) =   2
     Q(r) pseudized with 0 coefficients

     PseudoPot. # 3 for Pt read from file:
     ./pseudo/Pt.pbe-spfn-kjpaw_psl.1.0.0.UPF
     MD5 check sum: 620096ebf4e6ebacc94de60fd67efcb5
     Pseudo is Projector augmented-wave + core cor, Zval = 32.0
     Generated using 'atomic' code by A. Dal Corso  v.7.2
     Shape of augmentation charge: PSQ
     Using radial grid of 1277 points,  8 beta functions with:
                l(1) =   0
                l(2) =   0
                l(3) =   1
                l(4) =   1
                l(5) =   2
                l(6) =   2
                l(7) =   3
                l(8) =   3
     Q(r) pseudized with 0 coefficients

     PseudoPot. # 4 for Pd read from file:
     ./pseudo/Pd.pbe-spn-kjpaw_psl.1.0.0.UPF
     MD5 check sum: a60571a671f2502b8a6a4569d20a6edb
     Pseudo is Projector augmented-wave + core cor, Zval = 18.0
     Generated using 'atomic' code by A. Dal Corso  v.7.2
     Shape of augmentation charge: PSQ
     Using radial grid of 1235 points,  6 beta functions with:
                l(1) =   0
                l(2) =   0
                l(3) =   1
                l(4) =   1
                l(5) =   2
                l(6) =   2
     Q(r) pseudized with 0 coefficients

     atomic species   valence    mass     pseudopotential
     Mo               14.00    95.95000     Mo( 1.00)
     S                 6.00    32.06000     S ( 1.00)
     Pt               32.00   195.08400     Pt( 1.00)
     Pd               18.00   106.42000     Pd( 1.00)

     No symmetry found

   Cartesian axes

     site n.     atom                  positions (alat units)
         1        Mo     tau(   1) = (   0.0000010   0.1443372  -0.7272732  )
         2        Mo     tau(   2) = (   0.1249995   0.0721706  -0.2424038  )
         3        S      tau(   3) = (   0.0000015   0.1443386  -0.3667807  )
         4        S      tau(   4) = (   0.1250010   0.0721682  -0.6030489  )
         5        S      tau(   5) = (   0.1250010   0.0721683  -0.8514963  )
         6        S      tau(   6) = (   0.0000015   0.1443389  -0.1180260  )
         7        Mo     tau(   7) = (   0.0000014   0.1443616   0.2424356  )
         8        Mo     tau(   8) = (   0.1250042   0.0720311   0.7263989  )
         9        S      tau(   9) = (   0.0000639   0.1447004   0.6020022  )
        10        S      tau(  10) = (   0.1250030   0.0721650   0.3667578  )
        11        S      tau(  11) = (   0.1250031   0.0721991   0.1180453  )
        12        S      tau(  12) = (  -0.0005532   0.1426765   0.8513101  )
        13        Mo     tau(  13) = (  -0.1249989   0.3608437  -0.7272732  )
        14        Mo     tau(  14) = (   0.0000030   0.2886752  -0.2424042  )
        15        S      tau(  15) = (  -0.1249977   0.3608450  -0.3667802  )
        16        S      tau(  16) = (   0.0000012   0.2886747  -0.6030489  )
        17        S      tau(  17) = (   0.0000012   0.2886748  -0.8514963  )
        18        S      tau(  18) = (  -0.1249977   0.3608454  -0.1180274  )
        19        Mo     tau(  19) = (  -0.1249758   0.3608563   0.2424461  )
        20        Mo     tau(  20) = (  -0.0009250   0.2875651   0.7279418  )
        21        S      tau(  21) = (  -0.1248723   0.3609173   0.6030853  )
        22        S      tau(  22) = (   0.0000474   0.2887247   0.3668317  )
        23        S      tau(  23) = (   0.0000000   0.2886879   0.1180554  )
        24        S      tau(  24) = (  -0.1255989   0.3604976   0.8519229  )
        25        Mo     tau(  25) = (  -0.2499987   0.5773502  -0.7272732  )
        26        Mo     tau(  26) = (  -0.1249977   0.5051839  -0.2424055  )
        27        S      tau(  27) = (  -0.2499981   0.5773518  -0.3667809  )
        28        S      tau(  28) = (  -0.1249986   0.5051812  -0.6030489  )
        29        S      tau(  29) = (  -0.1249986   0.5051813  -0.8514963  )
        30        S      tau(  30) = (  -0.2499979   0.5773512  -0.1180266  )
        31        Mo     tau(  31) = (  -0.2499765   0.5773372   0.2424355  )
        32        Mo     tau(  32) = (  -0.1264232   0.5049348   0.7279418  )
        33        S      tau(  33) = (  -0.2496528   0.5772237   0.6020023  )
        34        S      tau(  34) = (  -0.1249318   0.5051954   0.3668318  )
        35        S      tau(  35) = (  -0.1249873   0.5051727   0.1180553  )
        36        S      tau(  36) = (  -0.2517142   0.5777014   0.8513102  )
        37        Mo     tau(  37) = (  -0.3749985   0.7938567  -0.7272732  )
        38        Mo     tau(  38) = (  -0.2500001   0.7216874  -0.2424031  )
        39        S      tau(  39) = (  -0.3749980   0.7938584  -0.3667800  )
        40        S      tau(  40) = (  -0.2499984   0.7216877  -0.6030489  )
        41        S      tau(  41) = (  -0.2499984   0.7216878  -0.8514963  )
        42        S      tau(  42) = (  -0.3749982   0.7938585  -0.1180264  )
        43        Mo     tau(  43) = (  -0.3749961   0.7938572   0.2423820  )
        44        Mo     tau(  44) = (  -0.2501160   0.7217599   0.7263989  )
        45        S      tau(  45) = (  -0.3749948   0.7938592   0.6019084  )
        46        S      tau(  46) = (  -0.2499995   0.7216903   0.3667578  )
        47        S      tau(  47) = (  -0.2499699   0.7216732   0.1180452  )
        48        S      tau(  48) = (  -0.3749951   0.7938590   0.8508262  )
        49        Mo     tau(  49) = (   0.2500010   0.1443372  -0.7272732  )
        50        Mo     tau(  50) = (   0.3750034   0.0721723  -0.2424032  )
        51        S      tau(  51) = (   0.2500017   0.1443391  -0.3667788  )
        52        S      tau(  52) = (   0.3750010   0.0721682  -0.6030489  )
        53        S      tau(  53) = (   0.3750010   0.0721683  -0.8514963  )
        54        S      tau(  54) = (   0.2500016   0.1443391  -0.1180271  )
        55        Mo     tau(  55) = (   0.2500050   0.1443618   0.2424356  )
        56        Mo     tau(  56) = (   0.3749291   0.0721273   0.7261578  )
        57        S      tau(  57) = (   0.2499446   0.1447002   0.6020022  )
        58        S      tau(  58) = (   0.3750312   0.0721852   0.3667808  )
        59        S      tau(  59) = (   0.3749943   0.0721639   0.1180502  )
        60        S      tau(  60) = (   0.2505615   0.1426764   0.8513103  )
[...]
       180        S      tau( 180) = (   0.5017240   0.5777016   0.8513099  )
       181        Mo     tau( 181) = (   0.3750016   0.7938567  -0.7272732  )
       182        Mo     tau( 182) = (   0.5000025   0.7216901  -0.2424039  )
       183        S      tau( 183) = (   0.3750019   0.7938578  -0.3667793  )
       184        S      tau( 184) = (   0.5000016   0.7216877  -0.6030489  )
       185        S      tau( 185) = (   0.5000016   0.7216878  -0.8514963  )
       186        S      tau( 186) = (   0.3750020   0.7938579  -0.1180272  )
       187        Mo     tau( 187) = (   0.3749825   0.7938468   0.2424356  )
       188        Mo     tau( 188) = (   0.5001261   0.7217601   0.7263985  )
       189        S      tau( 189) = (   0.3747228   0.7936274   0.6020018  )
       190        S      tau( 190) = (   0.5000073   0.7216903   0.3667579  )
       191        S      tau( 191) = (   0.4999777   0.7216732   0.1180450  )
       192        S      tau( 192) = (   0.3761670   0.7951734   0.8513099  )
       193        Pt     tau( 193) = (   0.1250041   0.5051825   0.9498857  )
       194        Pd     tau( 194) = (   0.3764392   0.5049600   0.9770758  )

     DFT-D3 Dispersion Correction (3-body terms):
       Reference C6 values for interpolation:

[...]
   -40.6935 -40.6935 -40.6935 -40.6935 -40.6935 -40.6935 -40.6933 -40.6926
   -40.6926 -40.6926 -40.6926 -40.6834 -40.6813 -40.6779 -40.6736 -40.6588
   -40.6588 -40.6588 -40.6588 -40.6588 -40.6588 -40.6587 -40.6587 -40.6578
   -40.6578 -40.6578 -40.6578 -40.6486 -40.6467 -40.6466 -40.6466 -40.6465
   -40.6457 -40.6457 -40.6428 -40.6385 -40.6319 -40.6279 -40.6273 -40.6273
   -40.6273 -40.6272 -40.6263 -40.6263 -40.6188 -40.6155 -40.6103 -40.6103
   -40.6103 -40.6102 -40.6093 -40.6093 -40.6010 -40.5896 -40.5797 -40.5796
   -40.5796 -40.5796 -40.5786 -40.5786 -40.5724 -40.5625 -40.5526 -20.0800
   -19.9120 -19.8917 -19.8530 -19.7940 -19.7614 -19.6842 -19.6704 -19.5644
   -19.4875 -19.4545 -19.4361 -19.3641 -19.3454 -19.2594 -19.2491 -19.1283
   -18.8813 -18.8630 -18.7934 -18.7801 -18.7582 -18.7476 -18.7433 -18.7414
   -18.7217 -18.7122 -18.6857 -18.6784 -18.6707 -18.6584 -18.6442 -18.6209
   -18.6029 -18.5964 -18.5773 -18.5765 -18.5684 -18.5544 -18.5466 -18.5385
   -18.5056 -18.5008 -18.4985 -18.4917 -18.4608 -18.4357 -18.4308 -18.4285
   -18.4076 -18.4010 -18.3739 -18.3564 -18.3434 -18.3412 -18.3062 -18.2799
   -18.2753 -18.2702 -18.2548 -18.2238 -18.2160 -18.2061 -18.1817 -18.1591
   -18.1455 -18.1406 -18.1354 -18.1258 -18.1241 -18.1213 -18.1194 -18.1107
   -18.0964 -18.0953 -18.0929 -18.0898 -18.0880 -18.0787 -18.0763 -18.0731
   -18.0657 -18.0631 -18.0531 -18.0330 -18.0316 -18.0283 -18.0244 -18.0223
   -18.0203 -18.0176 -18.0118 -18.0106 -18.0008 -17.9717 -17.9681 -17.9603
   -17.9576 -17.9520 -17.9435 -17.9158 -17.9137 -17.9065 -17.8985 -17.8754
   -17.8707 -17.8676 -17.8622 -17.8581 -17.8479 -17.8422 -17.8420 -17.8416
   -17.8407 -17.8398 -17.8389 -17.8273 -17.8264 -17.8081 -17.8063 -17.7841
   -17.7822 -17.7651 -17.7624 -17.7502 -17.7485 -17.7422 -17.7420 -12.1419
   -11.8877 -11.7534 -11.7405 -11.7040 -11.6291 -11.5698 -11.5409 -11.5261
   -11.5206 -11.5174 -11.5091 -11.4958 -11.4910 -11.4714 -11.4429 -11.4331
   -11.4144 -11.3992 -11.3890 -11.3804 -11.3621 -11.3538 -11.3427 -11.3273
   -11.3062 -11.3037 -11.2925 -11.2881 -11.2844 -11.2819 -11.2769 -11.2721
   -11.2361 -11.2279 -11.2196 -11.2148 -11.2007 -11.1959 -11.1908 -11.1904
   -11.1806 -11.1727 -11.1694 -11.1673 -11.1430 -11.1212 -11.1112 -11.0965
   -11.0884 -11.0836 -11.0398 -11.0279 -10.9832 -10.9755 -10.9610 -10.9497
   -10.9461 -10.9316 -10.9178 -10.9041 -10.9005 -10.8920 -10.8599 -10.8576
   -10.8524 -10.8449 -10.8378 -10.8351 -10.8340 -10.8333 -10.8323 -10.8308
   -10.8213 -10.8185 -10.8178 -10.8151 -10.8144 -10.8070 -10.8060 -10.8038
[...]
    -3.3884  -3.3760  -3.3727  -3.3681  -3.3659  -3.3631  -3.3623  -3.3575
    -3.3290  -3.3263  -3.3172  -3.3124  -3.3064  -3.3049  -3.3005  -3.2980
    -3.2963  -3.2921  -3.2751  -3.2707  -3.2622  -3.2594  -3.2521  -3.2503
    -3.2439  -3.2329  -3.2313  -3.2300  -3.2183  -3.2166  -3.2056  -3.2017
    -3.1946  -3.1918  -3.1846  -3.1829  -3.1828  -3.1769  -3.1621  -3.1297
    -3.1196  -3.1158  -3.0960  -3.0931  -3.0899  -3.0862  -3.0800  -3.0469
    -3.0466  -3.0448  -3.0428  -3.0426  -3.0417  -3.0356  -3.0312  -3.0302
    -3.0281  -3.0256  -3.0181  -3.0107  -3.0100  -3.0039  -3.0024  -2.9993
    -2.9933  -2.9909  -2.9873  -2.9842  -2.9799  -2.9694  -2.9681  -2.9644
    -2.9628  -2.9551  -2.9511  -2.9426  -2.9348  -2.9276  -2.9193  -2.9128
    -2.9054  -2.8998  -2.8976  -2.8943  -2.8759  -2.8248  -2.8177  -2.8122
    -2.8071  -2.7696  -2.7586  -2.7405  -2.7350  -2.6504  -2.6328  -2.6236
    -2.6170  -2.5979  -2.5870  -2.5851  -2.5674  -2.5620  -2.5596  -2.5485
    -2.5474  -2.5459  -2.5372  -2.4702  -2.4470  -2.4334  -2.4292  -2.4170
    -2.4098  -2.4003  -2.3966  -2.3772

     the Fermi energy is    -4.7412 ev

!    total energy              =  -33980.29849248 Ry
     total all-electron energy =   -667406.151499 Ry
     estimated scf accuracy    <          2.8E-09 Ry
     smearing contrib. (-TS)   =      -0.00000013 Ry
     internal energy E=F+TS    =  -33980.29849235 Ry

     The total energy is F=E-TS. E is the sum of the following terms:
     one-electron contribution = 1161383.12555953 Ry
     hartree contribution      = -580869.06322348 Ry
     xc contribution           =   -2010.76990148 Ry
     ewald contribution        = -591175.21957080 Ry
     DFT-D3 Dispersion         =      -5.43144988 Ry
     one-center paw contrib.   =  -21302.93990624 Ry

     convergence has been achieved in  10 iterations

     negative rho (up, down):  9.070E-04 0.000E+00

     Forces acting on atoms (cartesian axes, Ry/au):

     atom    1 type  1   force =    -0.00000057    0.00000084    0.00068828
     atom    2 type  1   force =     0.00002389   -0.00000529    0.00000112
     atom    3 type  2   force =     0.00000006    0.00000160    0.00000154
     atom    4 type  2   force =    -0.00000170    0.00000174    0.00161510
     atom    5 type  2   force =    -0.00000202    0.00000117   -0.00235915
     atom    6 type  2   force =    -0.00000032    0.00000526    0.00000227
     atom    7 type  1   force =     0.00000083    0.00000686    0.00004103
     atom    8 type  1   force =     0.00003472   -0.00011251    0.00001430
     atom    9 type  2   force =    -0.00000907   -0.00000571   -0.00001374
     atom   10 type  2   force =     0.00001393   -0.00001555    0.00001935
     atom   11 type  2   force =    -0.00001557    0.00000598   -0.00000394
     atom   12 type  2   force =     0.00004251    0.00013061    0.00009841
     atom   13 type  1   force =    -0.00000020    0.00000042    0.00068886
     atom   14 type  1   force =    -0.00001160    0.00001498   -0.00000024
     atom   15 type  2   force =     0.00000235    0.00000177    0.00000418
     atom   16 type  2   force =    -0.00000152    0.00000173    0.00161505
     atom   17 type  2   force =    -0.00000181    0.00000119   -0.00235920
     atom   18 type  2   force =     0.00000518    0.00000341   -0.00000653
     atom   19 type  1   force =     0.00000538    0.00000383    0.00003123
     atom   20 type  1   force =    -0.00008894   -0.00010765   -0.00008665
     atom   21 type  2   force =     0.00000869    0.00011245    0.00024781
     atom   22 type  2   force =     0.00000870    0.00001117    0.00005925
     atom   23 type  2   force =    -0.00001996   -0.00001455   -0.00000956
     atom   24 type  2   force =     0.00008415   -0.00011489    0.00013848
     atom   25 type  1   force =    -0.00000059    0.00000074    0.00068860
     atom   26 type  1   force =    -0.00000197   -0.00000754    0.00001477
     atom   27 type  2   force =    -0.00000025    0.00000327    0.00000159
     atom   28 type  2   force =    -0.00000150    0.00000167    0.00161517
     atom   29 type  2   force =    -0.00000185    0.00000112   -0.00235919
     atom   30 type  2   force =    -0.00000061   -0.00000087   -0.00000456
     atom   31 type  1   force =    -0.00000415   -0.00000037    0.00001408
     atom   32 type  1   force =    -0.00006284    0.00011734    0.00017815
     atom   33 type  2   force =    -0.00005105    0.00005715    0.00007074
     atom   34 type  2   force =    -0.00001685    0.00000761    0.00001712
     atom   35 type  2   force =     0.00000917    0.00000615   -0.00000843
     atom   36 type  2   force =     0.00017986    0.00027648    0.00023959
     atom   37 type  1   force =    -0.00000022    0.00000117    0.00068850
     atom   38 type  1   force =     0.00002494    0.00002349   -0.00000868
     atom   39 type  2   force =    -0.00000136    0.00000239    0.00000539
     atom   40 type  2   force =    -0.00000159    0.00000178    0.00161512
     atom   41 type  2   force =    -0.00000190    0.00000119   -0.00235916
     atom   42 type  2   force =    -0.00000298    0.00000141    0.00000136
     atom   43 type  1   force =     0.00000337   -0.00000589    0.00000299
     atom   44 type  1   force =    -0.00001648    0.00004575    0.00005306
     atom   45 type  2   force =     0.00006852   -0.00003616   -0.00009549
     atom   46 type  2   force =    -0.00001467   -0.00000280    0.00003261
     atom   47 type  2   force =     0.00002222    0.00000842   -0.00000442
     atom   48 type  2   force =     0.00015027    0.00004598    0.00022586
     atom   49 type  1   force =    -0.00000046    0.00000112    0.00068832
     atom   50 type  1   force =    -0.00002462   -0.00002442   -0.00000399
     atom   51 type  2   force =    -0.00000152    0.00000370    0.00000590
     atom   52 type  2   force =    -0.00000182    0.00000168    0.00161537
     atom   53 type  2   force =    -0.00000196    0.00000124   -0.00235914
     atom   54 type  2   force =    -0.00000182    0.00000585    0.00000001
     atom   55 type  1   force =     0.00000615    0.00000140    0.00002317
     atom   56 type  1   force =     0.00010238   -0.00003484   -0.00003235
     atom   57 type  2   force =    -0.00007660   -0.00004296   -0.00006505
     atom   58 type  2   force =     0.00000171    0.00001285    0.00003829
     atom   59 type  2   force =     0.00000739   -0.00002450   -0.00000862
     atom   60 type  2   force =    -0.00004087   -0.00005443    0.00002529
[...]
     atom  180 type  2   force =     0.00006364   -0.00000504    0.00001493
     atom  181 type  1   force =    -0.00000015    0.00000081    0.00068819
     atom  182 type  1   force =    -0.00001226   -0.00000705    0.00000089
     atom  183 type  2   force =    -0.00000371   -0.00000013    0.00000506
     atom  184 type  2   force =    -0.00000175    0.00000162    0.00161518
     atom  185 type  2   force =    -0.00000192    0.00000115   -0.00235913
     atom  186 type  2   force =    -0.00000538   -0.00000287   -0.00000477
     atom  187 type  1   force =    -0.00000025   -0.00000028    0.00003035
     atom  188 type  1   force =    -0.00006316    0.00009976    0.00004450
     atom  189 type  2   force =     0.00009726    0.00008326   -0.00035667
     atom  190 type  2   force =     0.00001322   -0.00001058    0.00002015
     atom  191 type  2   force =     0.00000364    0.00000903   -0.00001819
     atom  192 type  2   force =    -0.00038981    0.00013194    0.00004700
     atom  193 type  3   force =     0.00042274    0.00017736    0.00025502
     atom  194 type  4   force =     0.00080946   -0.00020996   -0.00002371

     Total force =     0.002399     Total SCF correction =     0.000378
     SCF correction compared to forces is large: reduce conv_thr to get better values
     Energy error            =      1.4E-05 Ry
     Gradient error          =      8.1E-04 Ry/Bohr

     bfgs converged in  20 scf cycles and  19 bfgs steps
     (criteria: energy <  1.0E-04 Ry, force <  1.0E-03 Ry/Bohr)

     End of BFGS Geometry Optimization

     Final energy             =  -33980.2984924776 Ry

     File ./outdir/pwscf.bfgs deleted, as requested
Begin final coordinates

ATOMIC_POSITIONS (angstrom)
Mo               0.0000119917        1.8193638619       -9.1672481230    0   0   0
Mo               1.5756136568        0.9097075315       -3.0554901653    0   0   0
S                0.0000188998        1.8193822938       -4.6232556019    0   0   0
S                1.5756321638        0.9096773839       -7.6014065489    0   0   0
S                1.5756326175        0.9096785128      -10.7330757790    0   0   0
S                0.0000189190        1.8193860094       -1.4877129945    0   0   0
Mo               0.0001124567        1.8197272663        3.0561231712
Mo               1.5759272294        0.9054773653        9.1553369552
S                0.0055023655        1.8257193589        7.5829905858
S                1.5754522906        0.9096638305        4.6236765848
S                1.5758123821        0.9098343129        1.4885516208
S               -0.0056083581        1.8026152427       10.7283327608
Mo              -1.5756053507        4.5484193819       -9.1672481230    0   0   0
Mo               0.0000378379        3.6387394919       -3.0554952701    0   0   0
S               -1.5755913433        4.5484363582       -4.6232494962    0   0   0
S                0.0000148214        3.6387329039       -7.6014065489    0   0   0
S                0.0000152751        3.6387340328      -10.7330757790    0   0   0
S               -1.5755906502        4.5484413613       -1.4877305502    0   0   0
Mo              -1.5754354091        4.5486856338        3.0562740781
Mo              -0.0120148649        3.6254871559        9.1711839039
S               -1.5743747386        4.5540715902        7.5986663840
S                0.0003113387        3.6393423902        4.6241451620
S                0.0003468623        3.6391534925        1.4885840164
S               -1.5807822868        4.5413947768       10.7378963167
Mo              -3.1512226931        7.2774749019       -9.1672481230    0   0   0
Mo              -1.5755910988        6.3678216792       -3.0555115988    0   0   0
S               -3.1512162438        7.2774954350       -4.6232578178    0   0   0
S               -1.5756025210        6.3677884239       -7.6014065489    0   0   0
S               -1.5756020673        6.3677895528      -10.7330757790    0   0   0
S               -3.1512127704        7.2774877076       -1.4877200710    0   0   0
Mo              -3.1510907853        7.2773592873        3.0564970584
Mo              -1.5861680166        6.3667409119        9.1806034524
S               -3.1482822890        7.2718034026        7.5988775877
S               -1.5748634516        6.3679149080        4.6242763358
S               -1.5756131249        6.3678097323        1.4884386086
S               -3.1549462741        7.2832630834       10.7454468904
Mo              -4.7268400355       10.0065304219       -9.1672481230    0   0   0
Mo              -3.1512405618        9.0968403586       -3.0554816746    0   0   0
S               -4.7268341792       10.0065523623       -4.6232463762    0   0   0
S               -3.1512198634        9.0968439439       -7.6014065489    0   0   0
S               -3.1512194097        9.0968450728      -10.7330757790    0   0   0
S               -4.7268370797       10.0065537885       -1.4877176751    0   0   0
Mo              -4.7268651829       10.0064302278        3.0561039463
Mo              -3.1505924820        9.0949250361        9.1641355577
S               -4.7267351504        9.9993577972        7.5921765517
S               -3.1511278343        9.0967568288        4.6236997999
S               -3.1512540197        9.0966485402        1.4884543748
S               -4.7217100751       10.0136098645       10.7324563109
Mo               3.1512517547        1.8193638619       -9.1672481230    0   0   0
Mo               4.7269020221        0.9097289540       -3.0554823951    0   0   0
S                3.1512612351        1.8193882564       -4.6232320683    0   0   0
S                4.7268719268        0.9096773839       -7.6014065489    0   0   0
S                4.7268723805        0.9096785128      -10.7330757790    0   0   0
S                3.1512592485        1.8193890201       -1.4877261251    0   0   0
Mo               3.1512319324        1.8196391259        3.0565941977
Mo               4.7270158783        0.9045845125        9.1542761673
S                3.1516559497        1.8174134816        7.5865071573
S                4.7270044071        0.9095021213        4.6237374124
S                4.7267367901        0.9098889988        1.4886366958
S                3.1537861580        1.7852756096       10.7331868517
[...]
S                6.3726818835        7.3104935547       10.7949364879
Mo               4.7268792535       10.0065304219       -9.1672481230    0   0   0
Mo               6.3025111524        9.0968738021       -3.0554915260    0   0   0
S                4.7268840634       10.0065452125       -4.6232380477    0   0   0
S                6.3024994256        9.0968439439       -7.6014065489    0   0   0
S                6.3024998793        9.0968450728      -10.7330757790    0   0   0
S                4.7268847312       10.0065459141       -1.4877283294    0   0   0
Mo               4.7268340194       10.0064492029        3.0565542186
Mo               6.3080046750        9.1020668023        9.1704741338
S                4.7413435698       10.0137442681        7.5779473675
S                6.3025973119        9.0963100984        4.6238147069
S                6.3023057025        9.0967094375        1.4885932053
S                4.7353969217       10.0347855207       10.7234952829
Pt               1.6808989019        6.3478197431       12.0351367165
Pd               4.5954641058        6.3354263126       12.1801902299
End final coordinates

     Writing all to output data dir ./outdir/pwscf.save/ :
     XML data file, charge density, pseudopotentials, collected wavefunctions

     General routines

     Parallel routines

   This run was terminated on:   3:24:34  16Mar2024

   JOB DONE.