     Program PWSCF v.7.2 starts on 15Dec2023 at 14:31:13

     Waiting for input...
     Reading input from standard input

     Current dimensions of program PWSCF are:
     Max number of different atomic species (ntypx) = 10
     Max number of k-points (npk) =  40000
     Max angular momentum in pseudopotentials (lmaxx) =  4
     file Mo.pbe-spn-kjpaw_psl.1.0.0.UPF: wavefunction(s)  4S 4D renormalized
     file C.pbe-n-kjpaw_psl.1.0.0.UPF: wavefunction(s)  2S 2P renormalized

     K-points division:     npool     =       2
     R & G space division:  proc/nbgrp/npool/nimage =      24
     Subspace diagonalization in iterative solution of the eigenvalue problem:
     a serial algorithm will be used

     Using Slab Decomposition

     bravais-lattice index     =            0
     lattice parameter (alat)  =       8.9357  a.u.
     unit-cell volume          =    1006.1983 (a.u.)^3
     number of atoms/cell      =           12
     number of atomic types    =            2
     number of electrons       =       128.00
     number of Kohn-Sham states=           77
     kinetic-energy cutoff     =      77.0000  Ry
     charge density cutoff     =     539.0000  Ry
     scf convergence threshold =      1.0E-06
     mixing beta               =       0.2000
     number of iterations used =            8  plain     mixing
     energy convergence thresh.=      1.0E-04
     force convergence thresh. =      1.0E-03
     press convergence thresh. =      5.0E-01
     Exchange-correlation= SLA  PW   PBX  PBC
                           (   1   4   3   4   0   0   0)
     nstep                     =         1000

     celldm(1)=   8.935651  celldm(2)=   0.000000  celldm(3)=   0.000000
     celldm(4)=   0.000000  celldm(5)=   0.000000  celldm(6)=   0.000000

     crystal axes: (cart. coord. in units of alat)
               a(1) = (   1.000000   0.000000   0.000000 )
               a(2) = (   0.000000   1.280014   0.000000 )
               a(3) = (   0.000000   0.000000   1.101768 )

     reciprocal axes: (cart. coord. in units 2 pi/alat)
               b(1) = (  1.000000  0.000000  0.000000 )
               b(2) = (  0.000000  0.781241  0.000000 )
               b(3) = (  0.000000  0.000000  0.907632 )

     PseudoPot. # 1 for Mo read from file:
     ./pseudo/Mo.pbe-spn-kjpaw_psl.1.0.0.UPF
     MD5 check sum: 317bf72632116215fd98f72de1686f13
     Pseudo is Projector augmented-wave + core cor, Zval = 14.0
     Generated using 'atomic' code by A. Dal Corso  v.7.2
     Shape of augmentation charge: PSQ
     Using radial grid of 1229 points,  6 beta functions with:
                l(1) =   0
                l(2) =   0
                l(3) =   1
                l(4) =   1
                l(5) =   2
                l(6) =   2
     Q(r) pseudized with 0 coefficients

     PseudoPot. # 2 for C  read from file:
     ./pseudo/C.pbe-n-kjpaw_psl.1.0.0.UPF
     MD5 check sum: 6b0792899573946bb42fe395835041da
     Pseudo is Projector augmented-wave + core cor, Zval =  4.0
     Generated using 'atomic' code by A. Dal Corso  v.7.2
     Shape of augmentation charge: PSQ
     Using radial grid of 1073 points,  4 beta functions with:
                l(1) =   0
                l(2) =   0
                l(3) =   1
                l(4) =   1
     Q(r) pseudized with 0 coefficients

     atomic species   valence    mass     pseudopotential
        Mo            14.00    95.95000     Mo( 1.00)
        C              4.00    12.01100     C ( 1.00)

     No symmetry found

   Cartesian axes

     site n.     atom                  positions (alat units)
         1           Mo  tau(   1) = (   0.2455485   0.1561920   0.0876003  )
         2           Mo  tau(   2) = (   0.7544515   1.1238222   1.0141676  )
         3           Mo  tau(   3) = (   0.2544515   0.4838151   0.6384843  )
         4           Mo  tau(   4) = (   0.7455485   0.7961991   0.4632836  )
         5           Mo  tau(   5) = (   0.7455485   0.4838151   1.0141676  )
         6           Mo  tau(   6) = (   0.2544515   0.7961991   0.0876003  )
         7           Mo  tau(   7) = (   0.7544515   0.1561920   0.4632836  )
         8           Mo  tau(   8) = (   0.2455485   1.1238222   0.6384843  )
         9           C   tau(   9) = (   0.0000000   0.4831807   0.2754420  )
        10           C   tau(  10) = (   0.0000000   0.7968336   0.8263259  )
        11           C   tau(  11) = (   0.5000000   0.1568264   0.8263259  )
        12           C   tau(  12) = (   0.5000000   1.1231878   0.2754420  )

     DFT-D3 Dispersion Correction (3-body terms):
       Reference C6 values for interpolation:

         atom   Coordination number   C6
         C          0.000            98.23
         C          0.987            86.49
         C          1.998            58.72
         C          2.999            51.56
         C          3.984            36.41
         Mo         0.000          1691.79
         Mo         1.942          1004.01
         Mo        11.056           674.22

       Values used:

         atom   Coordination number  R0_AB[au]  C6      C8
         Mo        13.534            3.547    674.22  77634.20
         Mo        13.534            3.547    674.22  77634.20
         Mo        13.534            3.547    674.22  77634.20
         Mo        13.534            3.547    674.22  77634.20
         Mo        13.534            3.547    674.22  77634.20
         Mo        13.534            3.547    674.22  77634.20
         Mo        13.534            3.547    674.22  77634.20
         Mo        13.534            3.547    674.22  77634.20
         C          6.044            2.750     36.41   1053.14
         C          6.044            2.750     36.41   1053.14
         C          6.044            2.750     36.41   1053.14
         C          6.044            2.750     36.41   1053.14

         Molecular C6 ( Ry / a.u.^6 ) =     53509.90

     number of k points=    36  Gaussian smearing, width (Ry)=  0.0100
                       cart. coord. in units 2pi/alat
        k(    1) = (   0.0000000   0.0000000   0.0000000), wk =   0.0312500
        k(    2) = (   0.0000000   0.0000000   0.2269080), wk =   0.0625000
        k(    3) = (   0.0000000   0.0000000  -0.4538161), wk =   0.0312500
        k(    4) = (   0.0000000   0.1953103   0.0000000), wk =   0.0625000
        k(    5) = (   0.0000000   0.1953103   0.2269080), wk =   0.0625000
        k(    6) = (   0.0000000   0.1953103  -0.4538161), wk =   0.0625000
        k(    7) = (   0.0000000   0.1953103  -0.2269080), wk =   0.0625000
        k(    8) = (   0.0000000  -0.3906207   0.0000000), wk =   0.0312500
        k(    9) = (   0.0000000  -0.3906207   0.2269080), wk =   0.0625000
        k(   10) = (   0.0000000  -0.3906207  -0.4538161), wk =   0.0312500
        k(   11) = (   0.2500000   0.0000000   0.0000000), wk =   0.0625000
        k(   12) = (   0.2500000   0.0000000   0.2269080), wk =   0.0625000
        k(   13) = (   0.2500000   0.0000000  -0.4538161), wk =   0.0625000
        k(   14) = (   0.2500000   0.0000000  -0.2269080), wk =   0.0625000
        k(   15) = (   0.2500000   0.1953103   0.0000000), wk =   0.0625000
        k(   16) = (   0.2500000   0.1953103   0.2269080), wk =   0.0625000
        k(   17) = (   0.2500000   0.1953103  -0.4538161), wk =   0.0625000
        k(   18) = (   0.2500000   0.1953103  -0.2269080), wk =   0.0625000
        k(   19) = (   0.2500000  -0.3906207   0.0000000), wk =   0.0625000
        k(   20) = (   0.2500000  -0.3906207   0.2269080), wk =   0.0625000
        k(   21) = (   0.2500000  -0.3906207  -0.4538161), wk =   0.0625000
        k(   22) = (   0.2500000  -0.3906207  -0.2269080), wk =   0.0625000
        k(   23) = (   0.2500000  -0.1953103   0.0000000), wk =   0.0625000
        k(   24) = (   0.2500000  -0.1953103   0.2269080), wk =   0.0625000
        k(   25) = (   0.2500000  -0.1953103  -0.4538161), wk =   0.0625000
        k(   26) = (   0.2500000  -0.1953103  -0.2269080), wk =   0.0625000
        k(   27) = (  -0.5000000   0.0000000   0.0000000), wk =   0.0312500
        k(   28) = (  -0.5000000   0.0000000   0.2269080), wk =   0.0625000
        k(   29) = (  -0.5000000   0.0000000  -0.4538161), wk =   0.0312500
        k(   30) = (  -0.5000000   0.1953103   0.0000000), wk =   0.0625000
        k(   31) = (  -0.5000000   0.1953103   0.2269080), wk =   0.0625000
        k(   32) = (  -0.5000000   0.1953103  -0.4538161), wk =   0.0625000
        k(   33) = (  -0.5000000   0.1953103  -0.2269080), wk =   0.0625000
        k(   34) = (  -0.5000000  -0.3906207   0.0000000), wk =   0.0312500
        k(   35) = (  -0.5000000  -0.3906207   0.2269080), wk =   0.0625000
        k(   36) = (  -0.5000000  -0.3906207  -0.4538161), wk =   0.0312500

     Check: negative core charge=   -0.000002

     Initial potential from superposition of free atoms

     starting charge     127.9928, renormalised to     128.0000
     Starting wfcs are   96 randomized atomic wfcs
     Checking if some PAW data can be deallocated...

     Self-consistent Calculation

     iteration #  1     ecut=    77.00 Ry     beta= 0.20
     Davidson diagonalization with overlap
     ethr =  1.00E-02,  avg # of iterations =  2.1

     total energy              =   -2985.49668426 Ry
     estimated scf accuracy    <       2.23983822 Ry

[...]

     iteration #  7     ecut=    77.00 Ry     beta= 0.20
     Davidson diagonalization with overlap
     c_bands:  1 eigenvalues not converged
     ethr =  1.19E-06,  avg # of iterations =  9.0

[...]

     End of self-consistent calculation

          k = 0.0000 0.0000 0.0000 ( 11493 PWs)   bands (ev):

   -41.4082 -41.2907 -41.2871 -41.2770 -41.2567 -41.2383 -41.2358 -41.2292
   -16.0946 -15.8992 -15.7427 -15.7344 -15.6784 -15.6638 -15.6242 -15.5651
   -15.5344 -15.4987 -15.4358 -15.4291 -15.3466 -15.3410 -15.3372 -15.3339
   -15.3232 -15.1800 -15.1319 -15.1287 -15.1070 -15.0022 -14.9937 -14.9392
     6.7242   8.2889   8.3282   9.0442  12.7496  12.8787  13.5098  14.2247
    14.3558  14.5736  14.5894  15.1630  15.4143  15.6025  15.6358  15.7262
    16.0524  16.2313  16.4577  17.0544  17.2202  17.2840  17.4518  17.5158
    18.4422  18.6133  18.7568  18.7944  18.9577  18.9711  19.2812  19.4306
    19.4439  20.6270  20.9282  20.9687  21.1054  21.2499  21.6684  22.1936
    22.4055  22.4470  22.7463  23.0033  23.2326

[...]

          k =-0.5000 0.0000 0.0000 ( 11452 PWs)   bands (ev):

[...]

     the Fermi energy is    20.0991 ev

!    total energy              =   -2985.65516793 Ry
     total all-electron energy =    -65089.735327 Ry
     estimated scf accuracy    <       0.00000072 Ry
     smearing contrib. (-TS)   =      -0.00536108 Ry
     internal energy E=F+TS    =   -2985.64980685 Ry

     The total energy is F=E-TS. E is the sum of the following terms:
     one-electron contribution =    -128.15750303 Ry
     hartree contribution      =     155.75630023 Ry
     xc contribution           =    -174.46989396 Ry
     ewald contribution        =    -994.69146264 Ry
     DFT-D3 Dispersion         =      -0.42585851 Ry
     one-center paw contrib.   =   -1843.66138895 Ry

     convergence has been achieved in  12 iterations

[...]
                l(1) =   0
                l(2) =   0
                l(3) =   1
                l(4) =   1
     Q(r) pseudized with 0 coefficients

     atomic species   valence    mass     pseudopotential
        Mo            14.00    95.95000     Mo( 1.00)
        C              4.00    12.01100     C ( 1.00)

     No symmetry found

   Cartesian axes

     site n.     atom                  positions (alat units)
         1           Mo  tau(   1) = (   0.2453487   0.1563330   0.0870587  )
         2           Mo  tau(   2) = (   0.7524965   1.1164697   1.0107141  )
         3           Mo  tau(   3) = (   0.2535734   0.4800684   0.6359415  )
         4           Mo  tau(   4) = (   0.7442673   0.7927466   0.4618282  )
         5           Mo  tau(   5) = (   0.7442699   0.4800685   1.0107131  )
         6           Mo  tau(   6) = (   0.2535761   0.7927465   0.0870571  )
         7           Mo  tau(   7) = (   0.7524951   0.1563337   0.4618283  )
         8           Mo  tau(   8) = (   0.2453471   1.1164697   0.6359397  )
         9           C   tau(   9) = (  -0.0000011   0.4804342   0.2744407  )
        10           C   tau(  10) = (   0.0000006   0.7923809   0.8233305  )
        11           C   tau(  11) = (   0.4989215   0.1559684   0.8233291  )
        12           C   tau(  12) = (   0.4989218   1.1168366   0.2744400  )

     DFT-D3 Dispersion Correction (3-body terms):
       Reference C6 values for interpolation:

         atom   Coordination number   C6
         C          0.000            98.23
         C          0.987            86.49
         C          1.998            58.72
         C          2.999            51.56
         C          3.984            36.41
         Mo         0.000          1691.79
         Mo         1.942          1004.01
         Mo        11.056           674.22

       Values used:

         atom   Coordination number  R0_AB[au]  C6      C8
         Mo        13.659            3.547    674.22  77634.20
         Mo        13.659            3.547    674.22  77634.20
         Mo        13.659            3.547    674.22  77634.20
         Mo        13.659            3.547    674.22  77634.20
         Mo        13.659            3.547    674.22  77634.20
         Mo        13.659            3.547    674.22  77634.20
         Mo        13.659            3.547    674.22  77634.20
         Mo        13.659            3.547    674.22  77634.20
         C          6.058            2.750     36.41   1053.14
         C          6.058            2.750     36.41   1053.14
         C          6.058            2.750     36.41   1053.14
         C          6.058            2.750     36.41   1053.14

         Molecular C6 ( Ry / a.u.^6 ) =     53509.90

     number of k points=    36  Gaussian smearing, width (Ry)=  0.0100
                       cart. coord. in units 2pi/alat
        k(    1) = (   0.0000000   0.0000000   0.0000000), wk =   0.0312500
        k(    2) = (   0.0000000   0.0000001   0.2277343), wk =   0.0625000
        k(    3) = (  -0.0000000  -0.0000002  -0.4554685), wk =   0.0312500
        k(    4) = (   0.0000001   0.1964157   0.0000001), wk =   0.0625000
        k(    5) = (   0.0000001   0.1964158   0.2277343), wk =   0.0625000
        k(    6) = (   0.0000001   0.1964156  -0.4554684), wk =   0.0625000
        k(    7) = (   0.0000001   0.1964157  -0.2277342), wk =   0.0625000
        k(    8) = (  -0.0000003  -0.3928315  -0.0000002), wk =   0.0312500
        k(    9) = (  -0.0000003  -0.3928314   0.2277341), wk =   0.0625000
        k(   10) = (  -0.0000003  -0.3928317  -0.4554687), wk =   0.0312500
        k(   11) = (   0.2505401   0.0000002   0.0000000), wk =   0.0625000
        k(   12) = (   0.2505401   0.0000003   0.2277343), wk =   0.0625000
        k(   13) = (   0.2505401  -0.0000000  -0.4554685), wk =   0.0625000
        k(   14) = (   0.2505401   0.0000001  -0.2277343), wk =   0.0625000
        k(   15) = (   0.2505402   0.1964159   0.0000001), wk =   0.0625000
        k(   16) = (   0.2505402   0.1964160   0.2277343), wk =   0.0625000
        k(   17) = (   0.2505402   0.1964157  -0.4554684), wk =   0.0625000
        k(   18) = (   0.2505402   0.1964158  -0.2277342), wk =   0.0625000
        k(   19) = (   0.2505398  -0.3928313  -0.0000002), wk =   0.0625000
        k(   20) = (   0.2505398  -0.3928312   0.2277341), wk =   0.0625000
        k(   21) = (   0.2505398  -0.3928315  -0.4554687), wk =   0.0625000
        k(   22) = (   0.2505398  -0.3928314  -0.2277344), wk =   0.0625000
        k(   23) = (   0.2505399  -0.1964156  -0.0000001), wk =   0.0625000
        k(   24) = (   0.2505399  -0.1964155   0.2277342), wk =   0.0625000
        k(   25) = (   0.2505399  -0.1964158  -0.4554686), wk =   0.0625000
        k(   26) = (   0.2505399  -0.1964157  -0.2277343), wk =   0.0625000
        k(   27) = (  -0.5010801  -0.0000003  -0.0000000), wk =   0.0312500
        k(   28) = (  -0.5010801  -0.0000002   0.2277343), wk =   0.0625000
        k(   29) = (  -0.5010801  -0.0000005  -0.4554685), wk =   0.0312500
        k(   30) = (  -0.5010800   0.1964154   0.0000001), wk =   0.0625000
        k(   31) = (  -0.5010800   0.1964155   0.2277343), wk =   0.0625000
        k(   32) = (  -0.5010800   0.1964152  -0.4554684), wk =   0.0625000
        k(   33) = (  -0.5010800   0.1964153  -0.2277342), wk =   0.0625000
        k(   34) = (  -0.5010804  -0.3928318  -0.0000002), wk =   0.0312500
        k(   35) = (  -0.5010804  -0.3928317   0.2277341), wk =   0.0625000
        k(   36) = (  -0.5010804  -0.3928320  -0.4554687), wk =   0.0312500

     Check: negative core charge=   -0.000002

     Initial potential from superposition of free atoms

     starting charge     127.9928, renormalised to     128.0000
     Starting wfcs are   96 randomized atomic wfcs
     Checking if some PAW data can be deallocated...

     Self-consistent Calculation

     iteration #  1     ecut=    77.00 Ry     beta= 0.20
     Davidson diagonalization with overlap
     c_bands:  2 eigenvalues not converged
     c_bands:  2 eigenvalues not converged
     c_bands:  3 eigenvalues not converged
     c_bands:  2 eigenvalues not converged
     c_bands:  2 eigenvalues not converged
     c_bands:  3 eigenvalues not converged
     c_bands:  1 eigenvalues not converged
     c_bands:  1 eigenvalues not converged
     c_bands:  1 eigenvalues not converged
     c_bands:  2 eigenvalues not converged
     c_bands:  2 eigenvalues not converged
     c_bands:  1 eigenvalues not converged
     c_bands:  3 eigenvalues not converged
     ethr =  1.00E-06,  avg # of iterations = 19.6

[...]

     total energy              =   -2985.65662028 Ry
     estimated scf accuracy    <       0.00000007 Ry

     iteration # 18     ecut=    77.00 Ry     beta= 0.20
     Davidson diagonalization with overlap
     ethr =  1.57E-11,  avg # of iterations =  4.7

     End of self-consistent calculation

[...]

          k = 0.2505-0.1964-0.2277 ( 11347 PWs)   bands (ev):

[...]

          k =-0.5011-0.3928-0.4555 ( 11336 PWs)   bands (ev):

   -41.0053 -41.0053 -41.0052 -41.0052 -40.9990 -40.9990 -40.9990 -40.9990
   -15.6220 -15.6220 -15.6220 -15.6220 -15.3817 -15.3817 -15.3817 -15.3817
   -15.1555 -15.1555 -15.1555 -15.1555 -15.0139 -15.0139 -15.0139 -15.0139
   -14.9679 -14.9679 -14.9679 -14.9679 -14.7724 -14.7724 -14.7724 -14.7724
     8.3166   8.3166   8.3167   8.3167  13.9567  13.9567  13.9567  13.9567
    14.8084  14.8084  14.8085  14.8085  15.7064  15.7065  15.7065  15.7065
    17.1013  17.1013  17.1013  17.1013  17.4264  17.4265  17.4265  17.4265
    18.6975  18.6975  18.6975  18.6976  19.4547  19.4547  19.4548  19.4548
    19.6751  19.6751  19.6751  19.6751  22.0809  22.0809  22.0809  22.0809
    22.3598  22.3598  22.3598  22.3598  22.6091

     the Fermi energy is    20.3634 ev

!    total energy              =   -2985.65662225 Ry
     total all-electron energy =    -65089.736782 Ry
     estimated scf accuracy    <          6.1E-10 Ry
     smearing contrib. (-TS)   =      -0.00518548 Ry
     internal energy E=F+TS    =   -2985.65143677 Ry

     The total energy is F=E-TS. E is the sum of the following terms:
     one-electron contribution =    -122.83262842 Ry
     hartree contribution      =     154.36953232 Ry
     xc contribution           =    -174.62454830 Ry
     ewald contribution        =    -998.46329591 Ry
     DFT-D3 Dispersion         =      -0.43047162 Ry
     one-center paw contrib.   =   -1843.67002484 Ry

     convergence has been achieved in  18 iterations

     Forces acting on atoms (cartesian axes, Ry/au):

     atom    1 type  1   force =     0.00015962    0.00011657    0.00014636
     atom    2 type  1   force =    -0.00016617   -0.00009204   -0.00015718
     atom    3 type  1   force =    -0.00016847   -0.00010583    0.00014738
     atom    4 type  1   force =     0.00018100    0.00008609   -0.00014344
     atom    5 type  1   force =     0.00016653   -0.00010620   -0.00015157
     atom    6 type  1   force =    -0.00017726    0.00008395    0.00015210
     atom    7 type  1   force =    -0.00016103    0.00011322   -0.00014690
     atom    8 type  1   force =     0.00016651   -0.00009318    0.00015380
     atom    9 type  2   force =     0.00000063    0.00032168    0.00000119
     atom   10 type  2   force =    -0.00000218   -0.00034019   -0.00000628
     atom   11 type  2   force =    -0.00000083   -0.00031515    0.00000183
     atom   12 type  2   force =     0.00000166    0.00033108    0.00000272
     The non-local contrib.  to forces
     atom    1 type  1   force =    -0.01040456   -0.02048540   -0.00633868
     atom    2 type  1   force =     0.01040773    0.02047363    0.00634427
     atom    3 type  1   force =     0.01040502    0.02047783   -0.00635067
     atom    4 type  1   force =    -0.01041124   -0.02046947    0.00635004
     atom    5 type  1   force =    -0.01040515    0.02047946    0.00634197
     atom    6 type  1   force =     0.01041050   -0.02047065   -0.00634269
     atom    7 type  1   force =     0.01040394   -0.02048291    0.00634761
     atom    8 type  1   force =    -0.01040689    0.02047262   -0.00635246
     atom    9 type  2   force =     0.00000221    0.00669408    0.00001592
     atom   10 type  2   force =    -0.00000460   -0.00671859   -0.00002270
     atom   11 type  2   force =     0.00000022   -0.00668791   -0.00001076
     atom   12 type  2   force =     0.00000111    0.00670527    0.00001726
     The ionic contribution  to forces
     atom    1 type  1   force =    -2.18083542    0.19150608    0.09276312
     atom    2 type  1   force =     2.18061732   -0.18955675   -0.09335715
     atom    3 type  1   force =     2.18036998   -0.19077977    0.09320710
     atom    4 type  1   force =    -2.17998370    0.18893299   -0.09286023
     atom    5 type  1   force =    -2.18044371   -0.19082249   -0.09316057
     atom    6 type  1   force =     2.18009316    0.18888114    0.09290673
     atom    7 type  1   force =     2.18081215    0.19141003   -0.09286593
     atom    8 type  1   force =    -2.18063401   -0.18960378    0.09338104
     atom    9 type  2   force =    -0.00001170   -0.24711411    0.00004132
     atom   10 type  2   force =    -0.00000052    0.24665387   -0.00010730
     atom   11 type  2   force =    -0.00003513    0.24731816   -0.00000149
     atom   12 type  2   force =     0.00005158   -0.24682537    0.00005336
     The local contribution  to forces
     atom    1 type  1   force =     2.19126540   -0.17173266   -0.08657416
     atom    2 type  1   force =    -2.19105574    0.16981122    0.08714850
     atom    3 type  1   force =    -2.19080876    0.17101318   -0.08701430
     atom    4 type  1   force =     2.19044109   -0.16918397    0.08667436
     atom    5 type  1   force =     2.19088156    0.17105223    0.08695994
     atom    6 type  1   force =    -2.19054672   -0.16913353   -0.08670340
     atom    7 type  1   force =    -2.19124290   -0.17164315    0.08667376
     atom    8 type  1   force =     2.19107220    0.16985680   -0.08717726
     atom    9 type  2   force =     0.00000953    0.24082428   -0.00004453
     atom   10 type  2   force =     0.00000182   -0.24035485    0.00010942
     atom   11 type  2   force =     0.00003065   -0.24103314    0.00000619
     atom   12 type  2   force =    -0.00004947    0.24053581   -0.00005739
     The core correction contribution to forces
     atom    1 type  1   force =     0.00038931    0.00085211    0.00030059
     atom    2 type  1   force =    -0.00038957   -0.00085127   -0.00030088
     atom    3 type  1   force =    -0.00038943   -0.00085174    0.00030138
     atom    4 type  1   force =     0.00038988    0.00085109   -0.00030118
     atom    5 type  1   force =     0.00038939   -0.00085181   -0.00030086
     atom    6 type  1   force =    -0.00038978    0.00085111    0.00030077
     atom    7 type  1   force =    -0.00038932    0.00085197   -0.00030119
     atom    8 type  1   force =     0.00038955   -0.00085127    0.00030140
     atom    9 type  2   force =    -0.00000004   -0.00002683   -0.00000540
     atom   10 type  2   force =     0.00000011    0.00002753    0.00000558
     atom   11 type  2   force =     0.00000002    0.00002660    0.00000526
     atom   12 type  2   force =    -0.00000006   -0.00002715   -0.00000543
     The Hubbard contrib.    to forces
     atom    1 type  1   force =     0.00000000    0.00000000    0.00000000
     atom    2 type  1   force =     0.00000000    0.00000000    0.00000000
     atom    3 type  1   force =     0.00000000    0.00000000    0.00000000
     atom    4 type  1   force =     0.00000000    0.00000000    0.00000000
     atom    5 type  1   force =     0.00000000    0.00000000    0.00000000
     atom    6 type  1   force =     0.00000000    0.00000000    0.00000000
     atom    7 type  1   force =     0.00000000    0.00000000    0.00000000
     atom    8 type  1   force =     0.00000000    0.00000000    0.00000000
     atom    9 type  2   force =     0.00000000    0.00000000    0.00000000
     atom   10 type  2   force =     0.00000000    0.00000000    0.00000000
     atom   11 type  2   force =     0.00000000    0.00000000    0.00000000
     atom   12 type  2   force =     0.00000000    0.00000000    0.00000000
     The SCF correction term to forces
     atom    1 type  1   force =     0.00000735    0.00001040   -0.00000343
     atom    2 type  1   force =    -0.00000834   -0.00000283    0.00000701
     atom    3 type  1   force =    -0.00000769    0.00000071    0.00000495
     atom    4 type  1   force =     0.00000742   -0.00001059   -0.00000753
     atom    5 type  1   force =     0.00000688    0.00000246    0.00000687
     atom    6 type  1   force =    -0.00000684   -0.00001015   -0.00000823
     atom    7 type  1   force =    -0.00000733    0.00001125   -0.00000226
     atom    8 type  1   force =     0.00000812   -0.00000149    0.00000217
     atom    9 type  2   force =     0.00000065    0.00000174   -0.00000612
     atom   10 type  2   force =     0.00000103   -0.00000565    0.00000871
     atom   11 type  2   force =     0.00000344    0.00000368    0.00000261
     atom   12 type  2   force =    -0.00000149    0.00000001   -0.00000508

     DFT-D3 dispersion contribution to forces:
     atom    1 type  1   force =    -0.00026245   -0.00003396   -0.00000109
     atom    2 type  1   force =     0.00026245    0.00003396    0.00000108
     atom    3 type  1   force =     0.00026243    0.00003395   -0.00000109
     atom    4 type  1   force =    -0.00026244   -0.00003396    0.00000110
     atom    5 type  1   force =    -0.00026243    0.00003396    0.00000108
     atom    6 type  1   force =     0.00026244   -0.00003396   -0.00000109
     atom    7 type  1   force =     0.00026245   -0.00003395    0.00000111
     atom    8 type  1   force =    -0.00026244    0.00003396   -0.00000109
     atom    9 type  2   force =    -0.00000000   -0.00005748   -0.00000000
     atom   10 type  2   force =     0.00000000    0.00005750    0.00000000
     atom   11 type  2   force =    -0.00000000    0.00005747    0.00000000
     atom   12 type  2   force =     0.00000000   -0.00005749   -0.00000000

     Total force =     0.000957     Total SCF correction =     0.000037

     Computing stress (Cartesian axis) and pressure

          total   stress  (Ry/bohr**3)                   (kbar)     P=       -0.10
  -0.00000336   0.00000002   0.00000001           -0.49        0.00        0.00
   0.00000002   0.00000311   0.00000000            0.00        0.46        0.00
   0.00000001   0.00000000  -0.00000174            0.00        0.00       -0.26

     Writing all to output data dir ./outdir/pwscf.save/

     General routines

     Parallel routines

   This run was terminated on:  14:34:44  15Dec2023

   JOB DONE.