     Program PWSCF v.7.3 starts on 11Mar2024 at 21:25:23

     Waiting for input...
     Reading input from standard input
Warning: card &CELL ignored
Warning: card / ignored

     Current dimensions of program PWSCF are:
     Max number of different atomic species (ntypx) = 10
     Max number of k-points (npk) =  40000
     Max angular momentum in pseudopotentials (lmaxx) =  4
     file Mo.pbe-spn-kjpaw_psl.1.0.0.UPF: wavefunction(s)  4S 4D renormalized
     file S.pbe-n-kjpaw_psl.1.0.0.UPF: wavefunction(s)  3S 3P renormalized
     file Pd.pbe-spn-kjpaw_psl.1.0.0.UPF: wavefunction(s)  4S 5S 4D renormalized
     file Pt.pbe-spfn-kjpaw_psl.1.0.0.UPF: wavefunction(s)  5P 4F renormalized

     R & G space division:  proc/nbgrp/npool/nimage =      36
     Subspace diagonalization in iterative solution of the eigenvalue problem:
     one sub-group per band group will be used

     Using Slab Decomposition

     bravais-lattice index     =            0
     lattice parameter (alat)  =      23.8395  a.u.
     unit-cell volume          =   28182.8498 (a.u.)^3
     number of atoms/cell      =          146
     number of atomic types    =            4
     number of electrons       =      1298.00
     number of Kohn-Sham states=          779
     kinetic-energy cutoff     =      77.0000  Ry
     charge density cutoff     =     539.0000  Ry
     scf convergence threshold =      1.0E-06
     mixing beta               =       0.2000
     number of iterations used =            8  plain     mixing
     energy convergence thresh.=      1.0E-04
     force convergence thresh. =      1.0E-03
     Exchange-correlation= SLA  PW   PBX  PBC
                           (   1   4   3   4   0   0   0)
     nstep                     =         1000

     Effective Screening Medium Method
     Boundary Conditions: Vacuum-Slab-Vacuum
     total charge in unit cell        =   0.0000
     grid points for fit at edges     =        4

     celldm(1)=  23.839504  celldm(2)=   0.000000  celldm(3)=   0.000000
     celldm(4)=   0.000000  celldm(5)=   0.000000  celldm(6)=   0.000000

     crystal axes: (cart. coord. in units of alat)
               a(1) = (   1.000000   0.000000   0.000000 )
               a(2) = (  -0.500001   0.866026   0.000000 )
               a(3) = (   0.000000   0.000000   2.401941 )

     reciprocal axes: (cart. coord. in units 2 pi/alat)
               b(1) = (  1.000000  0.577351  0.000000 )
               b(2) = (  0.000000  1.154700  0.000000 )
               b(3) = (  0.000000  0.000000  0.416330 )

     PseudoPot. # 1 for Mo read from file:
     ./pseudo/Mo.pbe-spn-kjpaw_psl.1.0.0.UPF
     MD5 check sum: 317bf72632116215fd98f72de1686f13
     Pseudo is Projector augmented-wave + core cor, Zval = 14.0
     Generated using 'atomic' code by A. Dal Corso  v.7.2
     Shape of augmentation charge: PSQ
     Using radial grid of 1229 points,  6 beta functions with:
                l(1) =   0
                l(2) =   0
                l(3) =   1
                l(4) =   1
                l(5) =   2
                l(6) =   2
     Q(r) pseudized with 0 coefficients

     PseudoPot. # 2 for S  read from file:
     ./pseudo/S.pbe-n-kjpaw_psl.1.0.0.UPF
     MD5 check sum: 8b7b5302570d38d5e87fed6a1065abda
     Pseudo is Projector augmented-wave + core cor, Zval =  6.0
     Generated using 'atomic' code by A. Dal Corso  v.7.2
     Shape of augmentation charge: PSQ
     Using radial grid of 1151 points,  6 beta functions with:
                l(1) =   0
                l(2) =   0
                l(3) =   1
                l(4) =   1
                l(5) =   2
                l(6) =   2
     Q(r) pseudized with 0 coefficients

     PseudoPot. # 3 for Pd read from file:
     ./pseudo/Pd.pbe-spn-kjpaw_psl.1.0.0.UPF
     MD5 check sum: a60571a671f2502b8a6a4569d20a6edb
     Pseudo is Projector augmented-wave + core cor, Zval = 18.0
     Generated using 'atomic' code by A. Dal Corso  v.7.2
     Shape of augmentation charge: PSQ
     Using radial grid of 1235 points,  6 beta functions with:
                l(1) =   0
                l(2) =   0
                l(3) =   1
                l(4) =   1
                l(5) =   2
                l(6) =   2
     Q(r) pseudized with 0 coefficients

     PseudoPot. # 4 for Pt read from file:
     ./pseudo/Pt.pbe-spfn-kjpaw_psl.1.0.0.UPF
     MD5 check sum: 620096ebf4e6ebacc94de60fd67efcb5
     Pseudo is Projector augmented-wave + core cor, Zval = 32.0
     Generated using 'atomic' code by A. Dal Corso  v.7.2
     Shape of augmentation charge: PSQ
     Using radial grid of 1277 points,  8 beta functions with:
                l(1) =   0
                l(2) =   0
                l(3) =   1
                l(4) =   1
                l(5) =   2
                l(6) =   2
                l(7) =   3
                l(8) =   3
     Q(r) pseudized with 0 coefficients

     atomic species   valence    mass     pseudopotential
     Mo               14.00    95.95000     Mo( 1.00)
     S                 6.00    32.06000     S ( 1.00)
     Pd               18.00   106.42000     Pd( 1.00)
     Pt               32.00   195.08400     Pt( 1.00)

     No symmetry found

   Cartesian axes

     site n.     atom                  positions (alat units)
         1        Mo     tau(   1) = (   0.1244805   0.2154429   0.4826124  )
         2        Mo     tau(   2) = (   0.1250004   0.0721694  -0.4825273  )
         3        Mo     tau(   3) = (   0.0000154   0.1443583  -0.0000534  )
         4        S      tau(   4) = (   0.0000004   0.0000006  -0.6064556  )
         5        S      tau(   5) = (   0.1249822   0.0722030  -0.1241916  )
         6        S      tau(   6) = (   0.0001873   0.1444894   0.3573292  )
         7        S      tau(   7) = (   0.0000004   0.0000005  -0.3584711  )
         8        S      tau(   8) = (   0.1250220   0.0721432   0.1241096  )
         9        S      tau(   9) = (  -0.0009222   0.1433430   0.6062350  )
        10        Mo     tau(  10) = (  -0.0011812   0.4330952   0.4826123  )
        11        Mo     tau(  11) = (   0.0000001   0.2886759  -0.4825273  )
        12        Mo     tau(  12) = (  -0.1249761   0.3608493  -0.0000533  )
        13        S      tau(  13) = (  -0.1249999   0.2165071  -0.6064556  )
        14        S      tau(  14) = (   0.0000232   0.2886904  -0.1241345  )
        15        S      tau(  15) = (  -0.1247753   0.3609305   0.3573291  )
        16        S      tau(  16) = (  -0.1249998   0.2165070  -0.3584711  )
        17        S      tau(  17) = (   0.0000901   0.2887289   0.1242236  )
        18        S      tau(  18) = (  -0.1263226   0.3605428   0.6062351  )
        19        Mo     tau(  19) = (  -0.1251400   0.6495983   0.4819363  )
        20        Mo     tau(  20) = (  -0.1250002   0.5051824  -0.4825273  )
        21        Mo     tau(  21) = (  -0.2500026   0.5773383  -0.0001491  )
        22        S      tau(  22) = (  -0.2500002   0.4330136  -0.6064556  )
        23        S      tau(  23) = (  -0.1249812   0.5051509  -0.1241919  )
        24        S      tau(  24) = (  -0.2500015   0.5775831   0.3575295  )
        25        S      tau(  25) = (  -0.2500001   0.4330135  -0.3584711  )
        26        S      tau(  26) = (  -0.1250129   0.5052153   0.1241101  )
        27        S      tau(  27) = (  -0.2500018   0.5771934   0.6060379  )
        28        Mo     tau(  28) = (   0.2499987  -0.0001601   0.4819365  )
        29        Mo     tau(  29) = (  -0.2500004   0.7216889  -0.4825273  )
        30        Mo     tau(  30) = (  -0.3750135   0.7938631  -0.0001491  )
        31        S      tau(  31) = (  -0.3750004   0.6495201  -0.6064556  )
        32        S      tau(  32) = (  -0.2500026   0.7216883  -0.1242347  )
        33        S      tau(  33) = (  -0.3747997   0.7937400   0.3575295  )
        34        S      tau(  34) = (  -0.3750004   0.6495200  -0.3584711  )
        35        S      tau(  35) = (  -0.2500029   0.7216883   0.1240299  )
        36        S      tau(  36) = (  -0.3751376   0.7939346   0.6060379  )
        37        Mo     tau(  37) = (   0.3755166   0.2154425   0.4826119  )
        38        Mo     tau(  38) = (   0.3750004   0.0721694  -0.4825273  )
        39        Mo     tau(  39) = (   0.2499990   0.1443474  -0.0000968  )
        40        S      tau(  40) = (   0.2500004   0.0000006  -0.6064556  )
        41        S      tau(  41) = (   0.3750152   0.0722028  -0.1241921  )
        42        S      tau(  42) = (   0.2499983   0.1443201   0.3580593  )
        43        S      tau(  43) = (   0.2500004   0.0000005  -0.3584711  )
        44        S      tau(  44) = (   0.3749754   0.0721432   0.1241106  )
        45        S      tau(  45) = (   0.2499987   0.1437775   0.6065499  )
        46        Mo     tau(  46) = (   0.2499984   0.4330123   0.4872880  )
        47        Mo     tau(  47) = (   0.2500001   0.2886759  -0.4825273  )
        48        Mo     tau(  48) = (   0.1250277   0.3608616  -0.0000572  )
        49        S      tau(  49) = (   0.1250001   0.2165071  -0.6064556  )
        50        S      tau(  50) = (   0.2499987   0.2886898  -0.1241693  )
        51        S      tau(  51) = (   0.1266397   0.3617911   0.3615924  )
        52        S      tau(  52) = (   0.1250002   0.2165070  -0.3584711  )
        53        S      tau(  53) = (   0.2499988   0.2886671   0.1241958  )
        54        S      tau(  54) = (   0.1173054   0.3564020   0.6108885  )
        55        Mo     tau(  55) = (   0.1243363   0.6504991   0.4826116  )
        56        Mo     tau(  56) = (   0.1249998   0.5051824  -0.4825273  )
        57        Mo     tau(  57) = (   0.0000060   0.5773464  -0.0000969  )
        58        S      tau(  58) = (  -0.0000002   0.4330136  -0.6064556  )
        59        S      tau(  59) = (   0.1250101   0.5051751  -0.1241696  )
        60        S      tau(  60) = (  -0.0000165   0.5773581   0.3580590  )
[...]
       132        S      tau( 132) = (   0.5000130   0.5773585   0.3580587  )
       133        S      tau( 133) = (   0.4999999   0.4330135  -0.3584711  )
       134        S      tau( 134) = (   0.6250081   0.5052147   0.1241104  )
       135        S      tau( 135) = (   0.5004826   0.5776298   0.6065487  )
       136        Mo     tau( 136) = (  -0.0000706   0.0000401   0.4813070  )
       137        Mo     tau( 137) = (   0.4999996   0.7216889  -0.4825273  )
       138        Mo     tau( 138) = (   0.3749881   0.7938314  -0.0000535  )
       139        S      tau( 139) = (   0.3749996   0.6495201  -0.6064556  )
       140        S      tau( 140) = (   0.4999594   0.7216844  -0.1241918  )
       141        S      tau( 141) = (   0.3749610   0.7936184   0.3573285  )
       142        S      tau( 142) = (   0.3749996   0.6495200  -0.3584711  )
       143        S      tau( 143) = (   0.5000310   0.7216802   0.1241101  )
       144        S      tau( 144) = (   0.3753979   0.7951517   0.6062337  )
       145        Pd     tau( 145) = (   0.2499985   0.4330123   0.7148096  )
       146        Pt     tau( 146) = (   0.5012159   0.4331241   0.7254670  )

     DFT-D3 Dispersion Correction (3-body terms):
       Reference C6 values for interpolation:

[...]
   -40.6110 -40.5860 -40.5850 -40.5850 -40.5803 -40.5762 -40.5696 -40.5654
   -40.5563 -40.5536 -40.5389 -40.5276 -40.5104 -40.5008 -40.4904 -20.0119
   -19.9150 -19.8986 -19.8070 -19.7406 -19.6852 -19.5107 -19.4824 -19.4582
   -19.3984 -19.3151 -19.2823 -19.0678 -18.8342 -18.8202 -18.7741 -18.7721
   -18.7707 -18.7676 -18.7468 -18.7340 -18.6847 -18.6662 -18.6454 -18.6404
   -18.6286 -18.6093 -18.5850 -18.5812 -18.5696 -18.5251 -18.5228 -18.5016
   -18.4872 -18.4593 -18.4472 -18.4308 -18.4237 -18.4061 -18.3519 -18.3409
   -18.2991 -18.2828 -18.2689 -18.2579 -18.2489 -18.2165 -18.1962 -18.1876
   -18.1584 -18.1583 -18.1582 -18.1582 -18.1493 -18.1379 -18.1356 -18.1035
   -18.0999 -18.0866 -18.0823 -18.0815 -18.0758 -18.0676 -18.0574 -18.0364
   -18.0266 -18.0212 -18.0152 -18.0071 -17.9983 -17.9777 -17.9734 -17.9704
   -17.9639 -17.9547 -17.9465 -17.9138 -17.9120 -17.8997 -17.8948 -17.8948
   -17.8907 -17.8497 -17.8461 -17.8352 -17.8350 -17.8300 -17.8194 -17.8185
   -17.8120 -17.7934 -17.7807 -17.7744 -17.7724 -17.7191 -17.7120 -12.0678
   -11.8186 -11.7131 -11.7004 -11.6316 -11.5364 -11.5097 -11.5061 -11.5034
   -11.5006 -11.4801 -11.4747 -11.4707 -11.4277 -11.4136 -11.4054 -11.3958
   -11.3825 -11.3571 -11.3427 -11.3403 -11.3176 -11.3154 -11.2963 -11.2885
   -11.2877 -11.2876 -11.2423 -11.2419 -11.2289 -11.2016 -11.1862 -11.1851
   -11.1822 -11.1595 -11.0925 -11.0495 -11.0282 -11.0189 -11.0024 -10.9853
   -10.9775 -10.9599 -10.9454 -10.9410 -10.9351 -10.9168 -10.9035 -10.8999
   -10.8723 -10.8656 -10.8623 -10.8607 -10.8601 -10.8574 -10.8505 -10.8406
   -10.8249 -10.8175 -10.8060 -10.7959 -10.7904 -10.7806 -10.7777 -10.6722
   -10.6292 -10.6061 -10.5813 -10.5246 -10.5162 -10.4223 -10.3930 -10.3225
   -10.3110 -10.2675 -10.2336 -10.1595 -10.1534 -10.1456 -10.1413 -10.0784
   -10.0668 -10.0412 -10.0366  -9.9829  -9.9747  -9.9707  -9.9673  -9.9663
    -9.9582  -9.9425  -9.9335  -9.9265  -9.9242  -9.9124  -9.8846  -9.8357
    -9.8257  -9.8144  -9.8022  -9.7892  -9.7798  -9.7663  -9.7623  -9.7433
    -9.7411  -9.7313  -9.7269  -9.7122  -9.6883  -9.6821  -9.6734  -9.6542
    -9.6470  -9.6415  -9.6339  -9.5955  -9.5797  -9.5642  -9.5613  -9.5547
    -9.5402  -9.5027  -9.5003  -9.4920  -9.4601  -9.4077  -9.3658  -9.3495
    -9.3420  -9.2922  -9.2472  -9.2434  -9.2218  -9.2020  -9.1891  -9.1861
    -9.1702  -9.1596  -9.1554  -9.1411  -9.1287  -9.1079  -9.0852  -9.0748
    -9.0597  -9.0520  -9.0455  -9.0413  -9.0249  -9.0173  -9.0089  -8.9996
    -8.9883  -8.9803  -8.9746  -8.9638  -8.9631  -8.9602  -8.9531  -8.9337
    -8.9253  -8.9030  -8.8924  -8.8896  -8.8884  -8.8825  -8.8727  -8.8703
    -8.8700  -8.8625  -8.8536  -8.8517  -8.8373  -8.8344  -8.8112  -8.7973
[...]
    -3.7798  -3.7507  -3.7117  -3.6583  -3.6303  -3.6272  -3.6262  -3.6238
    -3.6102  -3.6101  -3.6073  -3.5848  -3.5811  -3.5515  -3.5358  -3.5287
    -3.5217  -3.5101  -3.5082  -3.5022  -3.5001  -3.4924  -3.4891  -3.4566
    -3.4407  -3.4156  -3.4002  -3.3903  -3.3854  -3.3778  -3.3773  -3.3742
    -3.3486  -3.3453  -3.3401  -3.3366  -3.3200  -3.3036  -3.3017  -3.3011
    -3.2998  -3.2978  -3.2742  -3.2658  -3.2631  -3.2550  -3.2524  -3.2403
    -3.2333  -3.2224  -3.2221  -3.2182  -3.2117  -3.1776  -3.1517  -3.1514
    -3.1470  -3.1292  -3.1156  -3.0978  -3.0957  -3.0634  -3.0617  -3.0570
    -3.0557  -3.0383  -3.0377  -3.0375  -3.0374  -3.0045  -2.9930  -2.9889
    -2.9880  -2.9723  -2.9643  -2.9588  -2.9527  -2.9470  -2.9422  -2.9308
    -2.9205  -2.9166  -2.9096  -2.9038  -2.8996  -2.8800  -2.8780  -2.8544
    -2.8492  -2.8435  -2.8323  -2.8309  -2.8130  -2.7730  -2.7677  -2.7402
    -2.7374  -2.6964  -2.6769  -2.6746  -2.6734  -2.6611  -2.6569  -2.5967
    -2.5890  -2.5557  -2.5433  -2.5267  -2.5208  -2.5172  -2.4910  -2.4104
    -2.3839  -2.3689  -2.3373

     the Fermi energy is    -4.6988 ev

!    total energy              =  -26031.80894212 Ry
     total all-electron energy =   -512284.378570 Ry
     estimated scf accuracy    <          1.5E-09 Ry
     smearing contrib. (-TS)   =      -0.00000004 Ry
     internal energy E=F+TS    =  -26031.80894208 Ry

     The total energy is F=E-TS. E is the sum of the following terms:
     one-electron contribution =  491443.81604909 Ry
     hartree contribution      = -245865.61328650 Ry
     xc contribution           =   -1534.66054164 Ry
     ewald contribution        = -253882.58939462 Ry
     DFT-D3 Dispersion         =      -4.02149722 Ry
     one-center paw contrib.   =  -16188.74027118 Ry

     convergence has been achieved in  12 iterations

     negative rho (up, down):  9.268E-04 0.000E+00

     Forces acting on atoms (cartesian axes, Ry/au):

     atom    1 type  1   force =     0.00003250    0.00004573    0.00002611
     atom    2 type  1   force =     0.00000101    0.00000021    0.00190129
     atom    3 type  1   force =     0.00000695    0.00000215    0.00005083
     atom    4 type  2   force =     0.00000142    0.00000012   -0.00327924
     atom    5 type  2   force =    -0.00001420    0.00001846    0.00001032
     atom    6 type  2   force =     0.00005614    0.00012500   -0.00023959
     atom    7 type  2   force =    -0.00000128    0.00000150    0.00149948
     atom    8 type  2   force =     0.00001684   -0.00000809    0.00001781
     atom    9 type  2   force =    -0.00001688   -0.00000858   -0.00000055
     atom   10 type  1   force =     0.00007444   -0.00011484    0.00013794
     atom   11 type  1   force =     0.00000148    0.00000191    0.00189674
     atom   12 type  1   force =     0.00000772   -0.00000074   -0.00000359
     atom   13 type  2   force =     0.00000134    0.00000020   -0.00327884
     atom   14 type  2   force =     0.00000275   -0.00002780   -0.00000039
     atom   15 type  2   force =    -0.00000223   -0.00006020    0.00005232
     atom   16 type  2   force =     0.00000079    0.00000166    0.00151209
     atom   17 type  2   force =     0.00000676    0.00002943    0.00000296
     atom   18 type  2   force =     0.00002346   -0.00022193    0.00012543
     atom   19 type  1   force =    -0.00010683   -0.00008138   -0.00001045
     atom   20 type  1   force =     0.00000069   -0.00000066    0.00189786
     atom   21 type  1   force =    -0.00000816   -0.00000249   -0.00000771
     atom   22 type  2   force =     0.00000150    0.00000044   -0.00327912
     atom   23 type  2   force =     0.00000077    0.00000440   -0.00000926
     atom   24 type  2   force =    -0.00013461   -0.00024121   -0.00009024
     atom   25 type  2   force =    -0.00000258   -0.00000345    0.00148930
     atom   26 type  2   force =    -0.00001032    0.00000606   -0.00000319
     atom   27 type  2   force =    -0.00005720   -0.00006874    0.00014928
     atom   28 type  1   force =    -0.00005212    0.00004376    0.00001288
     atom   29 type  1   force =     0.00000134   -0.00000012    0.00190034
     atom   30 type  1   force =    -0.00000360    0.00001186    0.00001183
     atom   31 type  2   force =     0.00000140    0.00000049   -0.00327815
     atom   32 type  2   force =    -0.00000912    0.00000320   -0.00000331
     atom   33 type  2   force =     0.00012815    0.00007477   -0.00020907
     atom   34 type  2   force =    -0.00000468   -0.00000461    0.00149548
     atom   35 type  2   force =     0.00000409   -0.00000949    0.00000843
     atom   36 type  2   force =    -0.00006859    0.00014176    0.00004531
     atom   37 type  1   force =    -0.00009081   -0.00016227    0.00006214
     atom   38 type  1   force =     0.00000171    0.00000117    0.00189802
     atom   39 type  1   force =     0.00000099   -0.00001014    0.00002352
     atom   40 type  2   force =     0.00000141   -0.00000008   -0.00327903
     atom   41 type  2   force =     0.00000038   -0.00001260    0.00000445
     atom   42 type  2   force =    -0.00027640   -0.00002833   -0.00019147
     atom   43 type  2   force =     0.00000552    0.00000379    0.00149165
     atom   44 type  2   force =     0.00001649   -0.00002063    0.00002609
     atom   45 type  2   force =    -0.00004760   -0.00000044    0.00001275
     atom   46 type  1   force =    -0.00016968    0.00021735   -0.00003728
     atom   47 type  1   force =     0.00000120    0.00000252    0.00189407
     atom   48 type  1   force =    -0.00000061   -0.00000094   -0.00000017
     atom   49 type  2   force =     0.00000131    0.00000012   -0.00327905
     atom   50 type  2   force =    -0.00001779   -0.00002781    0.00000774
     atom   51 type  2   force =     0.00007013    0.00004248   -0.00001432
     atom   52 type  2   force =     0.00000072    0.00000879    0.00150146
     atom   53 type  2   force =     0.00000988    0.00000902    0.00004024
     atom   54 type  2   force =     0.00003410   -0.00008434    0.00021252
     atom   55 type  1   force =    -0.00001441    0.00003238   -0.00015959
     atom   56 type  1   force =     0.00000231   -0.00000085    0.00189476
     atom   57 type  1   force =     0.00000510    0.00000571   -0.00001270
     atom   58 type  2   force =     0.00000116    0.00000052   -0.00327916
     atom   59 type  2   force =    -0.00001091   -0.00000585   -0.00002117
     atom   60 type  2   force =    -0.00011134   -0.00007573   -0.00004752
[...]
     atom  132 type  2   force =     0.00015200   -0.00016469    0.00001510
     atom  133 type  2   force =    -0.00000090   -0.00000446    0.00149294
     atom  134 type  2   force =    -0.00000281   -0.00000031   -0.00001572
     atom  135 type  2   force =     0.00009984    0.00008942   -0.00001613
     atom  136 type  1   force =     0.00008653    0.00005648   -0.00012734
     atom  137 type  1   force =    -0.00000034   -0.00000053    0.00189864
     atom  138 type  1   force =     0.00000232   -0.00000440   -0.00004188
     atom  139 type  2   force =     0.00000152    0.00000051   -0.00327878
     atom  140 type  2   force =     0.00002187    0.00001453   -0.00001288
     atom  141 type  2   force =     0.00003623   -0.00017657   -0.00002888
     atom  142 type  2   force =    -0.00000063   -0.00000776    0.00148598
     atom  143 type  2   force =    -0.00001923    0.00000091    0.00001587
     atom  144 type  2   force =     0.00009274    0.00005848   -0.00007503
     atom  145 type  3   force =     0.00043443   -0.00037963   -0.00074894
     atom  146 type  4   force =    -0.00043264   -0.00015782    0.00042266

     Total force =     0.002100     Total SCF correction =     0.000507
     SCF correction compared to forces is large: reduce conv_thr to get better values
     Energy error            =      8.7E-06 Ry
     Gradient error          =      8.1E-04 Ry/Bohr

     bfgs converged in  20 scf cycles and  19 bfgs steps
     (criteria: energy <  1.0E-04 Ry, force <  1.0E-03 Ry/Bohr)

     End of BFGS Geometry Optimization

     Final energy             =  -26031.8089421178 Ry

     File ./outdir/pwscf.bfgs deleted, as requested
Begin final coordinates

ATOMIC_POSITIONS (angstrom)
Mo               1.5728584099        2.7248984549        6.0846296677
Mo               1.5769197498        0.9104407117       -6.0872367793    0   0   0
Mo               0.0000064819        1.8210801437       -0.0011764508
S                0.0000044503        0.0000077495       -7.6506323570    0   0   0
S                1.5768867506        0.9106879677       -1.5668171056
S                0.0009833979        1.8280240489        4.5084036036
S                0.0000053241        0.0000068460       -4.5222282367    0   0   0
S                1.5765055509        0.9096854758        1.5649075957
S               -0.0050837115        1.8134654520        7.6463120385
Mo              -0.0083433173        5.4608779160        6.0894717296
Mo               0.0000011799        3.6417399547       -6.0872367793    0   0   0
Mo              -1.5769383254        4.5523593334       -0.0003399350
S               -1.5769141197        2.7313069925       -7.6506323570    0   0   0
S                0.0000664635        3.6421925118       -1.5659587155
S               -1.5784430787        4.5581185036        4.5147012328
S               -1.5769132459        2.7313060890       -4.5222282367    0   0   0
S                0.0005905410        3.6421297729        1.5669073222
S               -1.5740278142        4.5458682150        7.6588435179
Mo              -1.5761867950        8.1925005962        6.0765729749
Mo              -1.5769173901        6.3730391977       -6.0872367793    0   0   0
Mo              -3.1539078508        7.2832271811       -0.0018575887
S               -3.1538326896        5.4626062355       -7.6506323570    0   0   0
S               -1.5769048157        6.3723575139       -1.5669812628
S               -3.1536787499        7.2779194951        4.5149006748
S               -3.1538318159        5.4626053320       -4.5222282367    0   0   0
S               -1.5768388214        6.3738582965        1.5653845562
S               -3.1485366503        7.2902057646        7.6509296666
Mo               3.1503616791       -0.0066803550        6.0594151345
Mo              -3.1538359601        9.1043384407       -6.0872367793    0   0   0
Mo              -4.7310118399       10.0143519894       -0.0019715373
S               -4.7307512596        8.1939054785       -7.6506323570    0   0   0
S               -3.1539490569        9.1041553188       -1.5675228957
S               -4.7361945165       10.0082756905        4.4986680160
S               -4.7307503859        8.1939045750       -4.5222282367    0   0   0
S               -3.1537558272        9.1040884530        1.5645927085
S               -4.7240763870       10.0309523718        7.6409998548
Mo               4.7312691145        2.6785456029        6.0630660596
Mo               4.7307503218        0.9104407117       -6.0872367793    0   0   0
Mo               3.1537861141        1.8210582172       -0.0008875486
S                3.1538350223        0.0000077495       -7.6506323570    0   0   0
S                4.7309615054        0.9112058378       -1.5665652546
S                3.1413300809        1.8137649598        4.4931642003
S                3.1538358961        0.0000068460       -4.5222282367    0   0   0
S                4.7306075728        0.9098639969        1.5656469652
S                3.1484213272        1.7916791802        7.6363891709
Mo               3.1343219737        5.4609304599        6.1273671186
Mo               3.1538317519        3.6417399547       -6.0872367793    0   0   0
Mo               1.5772651445        4.5523352177       -0.0004890283
S                1.5769164523        2.7313069925       -7.6506323570    0   0   0
S                3.1541470234        3.6420412748       -1.5659150250
S                1.5878352462        4.5621779438        4.5450352238
S                1.5769173261        2.7313060890       -4.5222282367    0   0   0
S                3.1543069183        3.6421228489        1.5672722016
S                1.5058388420        4.5174685189        7.7096242002
Mo               1.5684945754        8.2057842118        6.0812330691
Mo               1.5769131819        6.3730391977       -6.0872367793    0   0   0
Mo               0.0001511474        7.2832071232       -0.0019655814
S               -0.0000021176        5.4626062355       -7.6506323570    0   0   0
S                1.5773999285        6.3725935209       -1.5666642262
S                0.0006573296        7.2783287114        4.5130602505
[...]
S                6.3058630655        7.2647628101        4.5592588405
S                6.3076599001        5.4626053320       -4.5222282367    0   0   0
S                7.8845908286        6.3735694584        1.5665992621
S                6.3143989537        7.4171840141        7.7116746218
Mo               0.0000026982        0.0043028812        6.0689490566
Mo               6.3076557559        9.1043384407       -6.0872367793    0   0   0
Mo               4.7308222001       10.0144666851       -0.0005547077
S                4.7307404564        8.1939054785       -7.6506323570    0   0   0
S                6.3070607202        9.1038964510       -1.5666654774
S                4.7312974433       10.0173595436        4.5013302893
S                4.7307413301        8.1939045750       -4.5222282367    0   0   0
S                6.3079628792        9.1030623073        1.5660217247
S                4.7279081401       10.0496966817        7.6459069933
Pd               3.2765978430        5.4972508174        9.0883814118
Pt               6.2038144033        5.4867947583        8.9476404267
End final coordinates

     Writing all to output data dir ./outdir/pwscf.save/ :
     XML data file, charge density, pseudopotentials, collected wavefunctions

     General routines

     Parallel routines

   This run was terminated on:  23:24:40  12Mar2024

   JOB DONE.