     Program PWSCF v.7.3 starts on 29Apr2024 at 15:21: 0

     Waiting for input...
     Reading input from standard input
Warning: card &CELL ignored
Warning: card / ignored

     Current dimensions of program PWSCF are:
     Max number of different atomic species (ntypx) = 10
     Max number of k-points (npk) =  40000
     Max angular momentum in pseudopotentials (lmaxx) =  4
     file Mo.pbe-spn-kjpaw_psl.1.0.0.UPF: wavefunction(s)  4S 4D renormalized
     file S.pbe-n-kjpaw_psl.1.0.0.UPF: wavefunction(s)  3S 3P renormalized
     file Pt.pbe-spfn-kjpaw_psl.1.0.0.UPF: wavefunction(s)  5P 4F renormalized
     file Pd.pbe-spn-kjpaw_psl.1.0.0.UPF: wavefunction(s)  4S 5S 4D renormalized

     R & G space division:  proc/nbgrp/npool/nimage =      36
     Subspace diagonalization in iterative solution of the eigenvalue problem:
     one sub-group per band group will be used

     Using Slab Decomposition

     bravais-lattice index     =            0
     lattice parameter (alat)  =      23.8199  a.u.
     unit-cell volume          =   33861.0370 (a.u.)^3
     number of atoms/cell      =          195
     number of atomic types    =            4
     number of electrons       =      1732.00
     number of Kohn-Sham states=         1039
     kinetic-energy cutoff     =      77.0000  Ry
     charge density cutoff     =     539.0000  Ry
     scf convergence threshold =      1.0E-06
     mixing beta               =       0.2000
     number of iterations used =            8  plain     mixing
     energy convergence thresh.=      1.0E-04
     force convergence thresh. =      1.0E-03
     Exchange-correlation= SLA  PW   PBX  PBC
                           (   1   4   3   4   0   0   0)
     nstep                     =         1000

     Effective Screening Medium Method
     Boundary Conditions: Vacuum-Slab-Vacuum
     total charge in unit cell        =   0.0000
     grid points for fit at edges     =        4

     celldm(1)=  23.819920  celldm(2)=   0.000000  celldm(3)=   0.000000
     celldm(4)=   0.000000  celldm(5)=   0.000000  celldm(6)=   0.000000

     crystal axes: (cart. coord. in units of alat)
               a(1) = (   1.000000   0.000000   0.000000 )
               a(2) = (  -0.499999   0.866026   0.000000 )
               a(3) = (   0.000000   0.000000   2.893000 )

     reciprocal axes: (cart. coord. in units 2 pi/alat)
               b(1) = (  1.000000  0.577349  0.000000 )
               b(2) = (  0.000000  1.154700  0.000000 )
               b(3) = (  0.000000  0.000000  0.345662 )

     PseudoPot. # 1 for Mo read from file:
     ./pseudo/Mo.pbe-spn-kjpaw_psl.1.0.0.UPF
     MD5 check sum: 317bf72632116215fd98f72de1686f13
     Pseudo is Projector augmented-wave + core cor, Zval = 14.0
     Generated using 'atomic' code by A. Dal Corso  v.7.2
     Shape of augmentation charge: PSQ
     Using radial grid of 1229 points,  6 beta functions with:
                l(1) =   0
                l(2) =   0
                l(3) =   1
                l(4) =   1
                l(5) =   2
                l(6) =   2
     Q(r) pseudized with 0 coefficients

     PseudoPot. # 2 for S  read from file:
     ./pseudo/S.pbe-n-kjpaw_psl.1.0.0.UPF
     MD5 check sum: 8b7b5302570d38d5e87fed6a1065abda
     Pseudo is Projector augmented-wave + core cor, Zval =  6.0
     Generated using 'atomic' code by A. Dal Corso  v.7.2
     Shape of augmentation charge: PSQ
     Using radial grid of 1151 points,  6 beta functions with:
                l(1) =   0
                l(2) =   0
                l(3) =   1
                l(4) =   1
                l(5) =   2
                l(6) =   2
     Q(r) pseudized with 0 coefficients

     PseudoPot. # 3 for Pt read from file:
     ./pseudo/Pt.pbe-spfn-kjpaw_psl.1.0.0.UPF
     MD5 check sum: 620096ebf4e6ebacc94de60fd67efcb5
     Pseudo is Projector augmented-wave + core cor, Zval = 32.0
     Generated using 'atomic' code by A. Dal Corso  v.7.2
     Shape of augmentation charge: PSQ
     Using radial grid of 1277 points,  8 beta functions with:
                l(1) =   0
                l(2) =   0
                l(3) =   1
                l(4) =   1
                l(5) =   2
                l(6) =   2
                l(7) =   3
                l(8) =   3
     Q(r) pseudized with 0 coefficients

     PseudoPot. # 4 for Pd read from file:
     ./pseudo/Pd.pbe-spn-kjpaw_psl.1.0.0.UPF
     MD5 check sum: a60571a671f2502b8a6a4569d20a6edb
     Pseudo is Projector augmented-wave + core cor, Zval = 18.0
     Generated using 'atomic' code by A. Dal Corso  v.7.2
     Shape of augmentation charge: PSQ
     Using radial grid of 1235 points,  6 beta functions with:
                l(1) =   0
                l(2) =   0
                l(3) =   1
                l(4) =   1
                l(5) =   2
                l(6) =   2
     Q(r) pseudized with 0 coefficients

     atomic species   valence    mass     pseudopotential
     Mo               14.00    95.95000     Mo( 1.00)
     S                 6.00    32.06000     S ( 1.00)
     Pt               32.00   195.08400     Pt( 1.00)
     Pd               18.00   106.42000     Pd( 1.00)

     No symmetry found

   Cartesian axes

     site n.     atom                  positions (alat units)
         1        Mo     tau(   1) = (   0.0000010   0.1443372  -0.7272732  )
         2        Mo     tau(   2) = (   0.1249995   0.0721706  -0.2424038  )
         3        S      tau(   3) = (   0.0000015   0.1443386  -0.3667807  )
         4        S      tau(   4) = (   0.1250010   0.0721682  -0.6030489  )
         5        S      tau(   5) = (   0.1250010   0.0721683  -0.8514963  )
         6        S      tau(   6) = (   0.0000015   0.1443389  -0.1180260  )
         7        Mo     tau(   7) = (   0.0000005   0.1443381   0.2424561  )
         8        Mo     tau(   8) = (   0.1251981   0.0716023   0.7276027  )
         9        S      tau(   9) = (  -0.0003031   0.1454842   0.6052312  )
        10        S      tau(  10) = (   0.1249558   0.0721599   0.3668208  )
        11        S      tau(  11) = (   0.1250088   0.0721517   0.1180857  )
        12        S      tau(  12) = (  -0.0004157   0.1382876   0.8564685  )
        13        Mo     tau(  13) = (  -0.1249989   0.3608437  -0.7272732  )
        14        Mo     tau(  14) = (   0.0000030   0.2886752  -0.2424042  )
        15        S      tau(  15) = (  -0.1249977   0.3608450  -0.3667802  )
        16        S      tau(  16) = (   0.0000012   0.2886747  -0.6030489  )
        17        S      tau(  17) = (   0.0000012   0.2886748  -0.8514963  )
        18        S      tau(  18) = (  -0.1249977   0.3608454  -0.1180274  )
        19        Mo     tau(  19) = (  -0.1249623   0.3608201   0.2425155  )
        20        Mo     tau(  20) = (  -0.0007801   0.2872696   0.7308518  )
        21        S      tau(  21) = (  -0.1240398   0.3604107   0.6055268  )
        22        S      tau(  22) = (   0.0000411   0.2886546   0.3669163  )
        23        S      tau(  23) = (   0.0000035   0.2886726   0.1180964  )
        24        S      tau(  24) = (  -0.1315418   0.3638985   0.8543850  )
        25        Mo     tau(  25) = (  -0.2499987   0.5773502  -0.7272732  )
        26        Mo     tau(  26) = (  -0.1249977   0.5051839  -0.2424055  )
        27        S      tau(  27) = (  -0.2499981   0.5773518  -0.3667809  )
        28        S      tau(  28) = (  -0.1249986   0.5051812  -0.6030489  )
        29        S      tau(  29) = (  -0.1249986   0.5051813  -0.8514963  )
        30        S      tau(  30) = (  -0.2499979   0.5773512  -0.1180266  )
        31        Mo     tau(  31) = (  -0.2499787   0.5773156   0.2425145  )
        32        Mo     tau(  32) = (  -0.1271807   0.5060660   0.7281741  )
        33        S      tau(  33) = (  -0.2502658   0.5775034   0.6017985  )
        34        S      tau(  34) = (  -0.1249543   0.5051367   0.3669386  )
        35        S      tau(  35) = (  -0.1249864   0.5051552   0.1181399  )
        36        S      tau(  36) = (  -0.2525628   0.5785576   0.8514793  )
        37        Mo     tau(  37) = (  -0.3749985   0.7938567  -0.7272732  )
        38        Mo     tau(  38) = (  -0.2500001   0.7216874  -0.2424031  )
        39        S      tau(  39) = (  -0.3749980   0.7938584  -0.3667800  )
        40        S      tau(  40) = (  -0.2499984   0.7216877  -0.6030489  )
        41        S      tau(  41) = (  -0.2499984   0.7216878  -0.8514963  )
        42        S      tau(  42) = (  -0.3749982   0.7938585  -0.1180264  )
        43        Mo     tau(  43) = (  -0.3750043   0.7938372   0.2424536  )
        44        Mo     tau(  44) = (  -0.2503619   0.7218808   0.7263407  )
        45        S      tau(  45) = (  -0.3755748   0.7941519   0.6023691  )
        46        S      tau(  46) = (  -0.2500067   0.7216811   0.3668312  )
        47        S      tau(  47) = (  -0.2499793   0.7216445   0.1181126  )
        48        S      tau(  48) = (  -0.3746959   0.7932047   0.8515893  )
        49        Mo     tau(  49) = (   0.2500010   0.1443372  -0.7272732  )
        50        Mo     tau(  50) = (   0.3750034   0.0721723  -0.2424032  )
        51        S      tau(  51) = (   0.2500017   0.1443391  -0.3667788  )
        52        S      tau(  52) = (   0.3750010   0.0721682  -0.6030489  )
        53        S      tau(  53) = (   0.3750010   0.0721683  -0.8514963  )
        54        S      tau(  54) = (   0.2500016   0.1443391  -0.1180271  )
        55        Mo     tau(  55) = (   0.2500033   0.1443124   0.2424881  )
        56        Mo     tau(  56) = (   0.3752595   0.0716472   0.7255395  )
        57        S      tau(  57) = (   0.2498544   0.1431280   0.6011361  )
        58        S      tau(  58) = (   0.3750516   0.0721435   0.3668117  )
        59        S      tau(  59) = (   0.3750079   0.0721203   0.1180977  )
        60        S      tau(  60) = (   0.2517312   0.1427646   0.8506906  )
[...]
       181        Mo     tau( 181) = (   0.3750016   0.7938567  -0.7272732  )
       182        Mo     tau( 182) = (   0.5000025   0.7216901  -0.2424039  )
       183        S      tau( 183) = (   0.3750019   0.7938578  -0.3667793  )
       184        S      tau( 184) = (   0.5000016   0.7216877  -0.6030489  )
       185        S      tau( 185) = (   0.5000016   0.7216878  -0.8514963  )
       186        S      tau( 186) = (   0.3750020   0.7938579  -0.1180272  )
       187        Mo     tau( 187) = (   0.3749951   0.7938323   0.2424893  )
       188        Mo     tau( 188) = (   0.4998599   0.7217391   0.7271366  )
       189        S      tau( 189) = (   0.3746033   0.7939741   0.6029663  )
       190        S      tau( 190) = (   0.4999946   0.7216688   0.3668260  )
       191        S      tau( 191) = (   0.4999891   0.7216628   0.1180901  )
       192        S      tau( 192) = (   0.3755955   0.7938624   0.8526444  )
       193        Pt     tau( 193) = (   0.1194898   0.4990527   0.9549993  )
       194        Pd     tau( 194) = (   0.0026419   0.2990244   0.9662205  )
       195        Pd     tau( 195) = (   0.3758838   0.5051187   0.9774725  )

     DFT-D3 Dispersion Correction (3-body terms):
       Reference C6 values for interpolation:

[...]
   -40.6857 -40.6840 -40.6787 -40.6741 -40.6740 -40.6740 -40.6740 -40.6740
   -40.6740 -40.6739 -40.6738 -40.6731 -40.6731 -40.6731 -40.6731 -40.6586
   -40.6581 -40.6491 -40.6435 -40.6393 -40.6393 -40.6393 -40.6393 -40.6392
   -40.6392 -40.6392 -40.6391 -40.6384 -40.6384 -40.6384 -40.6384 -40.6271
   -40.6271 -40.6271 -40.6270 -40.6262 -40.6262 -40.6186 -40.6170 -40.6120
   -40.6089 -40.6079 -40.6078 -40.6078 -40.6076 -40.6069 -40.6069 -40.6053
   -40.5908 -40.5908 -40.5908 -40.5907 -40.5899 -40.5899 -40.5896 -40.5870
   -40.5770 -40.5657 -40.5602 -40.5602 -40.5601 -40.5600 -40.5592 -40.5592
   -40.5481 -40.5375 -40.5201 -20.1463 -19.8978 -19.8731 -19.8417 -19.7756
   -19.7477 -19.6657 -19.6529 -19.6447 -19.5117 -19.4370 -19.4313 -19.3470
   -19.3392 -19.2407 -19.2364 -19.1227 -19.0748 -18.8504 -18.8123 -18.7678
   -18.7658 -18.7284 -18.7271 -18.7219 -18.7183 -18.7001 -18.6764 -18.6626
   -18.6595 -18.6421 -18.6415 -18.6288 -18.5987 -18.5835 -18.5642 -18.5579
   -18.5562 -18.5471 -18.5352 -18.5255 -18.4992 -18.4912 -18.4817 -18.4735
   -18.4494 -18.4330 -18.4168 -18.4112 -18.4092 -18.3836 -18.3625 -18.3482
   -18.3368 -18.3234 -18.3126 -18.2854 -18.2685 -18.2527 -18.2504 -18.2210
   -18.1999 -18.1907 -18.1833 -18.1650 -18.1412 -18.1328 -18.1294 -18.1159
   -18.1044 -18.1024 -18.1011 -18.1002 -18.0806 -18.0765 -18.0746 -18.0722
   -18.0709 -18.0676 -18.0609 -18.0590 -18.0572 -18.0474 -18.0348 -18.0161
   -18.0128 -18.0107 -18.0068 -18.0045 -18.0031 -18.0024 -17.9947 -17.9928
   -17.9835 -17.9586 -17.9516 -17.9445 -17.9402 -17.9377 -17.9274 -17.9002
   -17.8982 -17.8937 -17.8817 -17.8766 -17.8655 -17.8516 -17.8480 -17.8448
   -17.8423 -17.8233 -17.8227 -17.8223 -17.8217 -17.8212 -17.8203 -17.8089
   -17.8073 -17.7898 -17.7867 -17.7651 -17.7625 -17.7459 -17.7425 -17.7306
   -17.7287 -17.7227 -17.7225 -12.2173 -11.9770 -11.8315 -11.7821 -11.7242
   -11.6489 -11.5870 -11.5267 -11.5187 -11.5048 -11.5033 -11.4979 -11.4837
   -11.4802 -11.4611 -11.4483 -11.4262 -11.4103 -11.4032 -11.3970 -11.3793
   -11.3686 -11.3538 -11.3444 -11.3240 -11.3094 -11.3035 -11.2884 -11.2789
   -11.2725 -11.2681 -11.2642 -11.2589 -11.2574 -11.2141 -11.2134 -11.2058
   -11.2005 -11.1940 -11.1843 -11.1742 -11.1736 -11.1643 -11.1539 -11.1504
   -11.1426 -11.1342 -11.1125 -11.0898 -11.0819 -11.0808 -11.0457 -11.0131
   -11.0073 -10.9736 -10.9652 -10.9536 -10.9360 -10.9228 -10.9119 -10.9064
   -10.8969 -10.8861 -10.8515 -10.8445 -10.8416 -10.8368 -10.8315 -10.8247
   -10.8161 -10.8144 -10.8137 -10.8133 -10.8100 -10.8037 -10.8010 -10.7960
[...]
    -3.4008  -3.3776  -3.3568  -3.3541  -3.3496  -3.3462  -3.3456  -3.3436
    -3.3379  -3.3257  -3.3090  -3.2997  -3.2868  -3.2826  -3.2818  -3.2801
    -3.2791  -3.2767  -3.2752  -3.2564  -3.2478  -3.2419  -3.2375  -3.2371
    -3.2298  -3.2245  -3.2173  -3.2133  -3.2112  -3.2049  -3.2026  -3.1904
    -3.1826  -3.1816  -3.1732  -3.1717  -3.1636  -3.1634  -3.1625  -3.1462
    -3.1097  -3.1062  -3.0977  -3.0907  -3.0812  -3.0715  -3.0671  -3.0603
    -3.0336  -3.0285  -3.0251  -3.0233  -3.0229  -3.0224  -3.0183  -3.0136
    -3.0113  -3.0107  -3.0051  -2.9989  -2.9967  -2.9922  -2.9883  -2.9828
    -2.9775  -2.9746  -2.9730  -2.9716  -2.9693  -2.9655  -2.9543  -2.9484
    -2.9471  -2.9407  -2.9361  -2.9332  -2.9225  -2.9144  -2.9103  -2.9029
    -2.8934  -2.8889  -2.8828  -2.8772  -2.8745  -2.8440  -2.8100  -2.8009
    -2.7931  -2.7881  -2.7533  -2.7415  -2.7271  -2.7180  -2.6327  -2.6179
    -2.6113  -2.6041  -2.5905  -2.5790  -2.5665  -2.5496  -2.5439  -2.5422
    -2.5315  -2.5295  -2.5275  -2.5221  -2.5019  -2.4264  -2.4195  -2.4085
    -2.3999  -2.3957  -2.3950  -2.3845  -2.3835  -2.3528  -2.3490

     the Fermi energy is    -4.7160 ev

!    total energy              =  -34492.26439229 Ry
     total all-electron energy =   -677498.144079 Ry
     estimated scf accuracy    <          3.7E-09 Ry
     smearing contrib. (-TS)   =      -0.00000012 Ry
     internal energy E=F+TS    =  -34492.26439217 Ry

     The total energy is F=E-TS. E is the sum of the following terms:
     one-electron contribution = 1196799.97286403 Ry
     hartree contribution      = -598579.07357019 Ry
     xc contribution           =   -2041.78852306 Ry
     ewald contribution        = -609107.75637775 Ry
     DFT-D3 Dispersion         =      -5.46942170 Ry
     one-center paw contrib.   =  -21558.14936351 Ry

     convergence has been achieved in  10 iterations

     negative rho (up, down):  9.464E-04 0.000E+00

     Forces acting on atoms (cartesian axes, Ry/au):

     atom    1 type  1   force =     0.00000046    0.00000071    0.00068790
     atom    2 type  1   force =     0.00002707   -0.00000757    0.00000539
     atom    3 type  2   force =     0.00000110    0.00000095    0.00000185
     atom    4 type  2   force =    -0.00000084    0.00000133    0.00161534
     atom    5 type  2   force =    -0.00000115    0.00000076   -0.00235977
     atom    6 type  2   force =    -0.00000005    0.00000402    0.00001940
     atom    7 type  1   force =    -0.00000134    0.00000822    0.00002478
     atom    8 type  1   force =    -0.00004028   -0.00005705    0.00004750
     atom    9 type  2   force =    -0.00007830   -0.00056330   -0.00037021
     atom   10 type  2   force =    -0.00000972   -0.00002815    0.00000938
     atom   11 type  2   force =    -0.00000277   -0.00000596    0.00001978
     atom   12 type  2   force =    -0.00009500    0.00022202   -0.00016555
     atom   13 type  1   force =     0.00000100   -0.00000012    0.00068842
     atom   14 type  1   force =    -0.00000901    0.00001445    0.00000262
     atom   15 type  2   force =     0.00000288    0.00000117    0.00000364
     atom   16 type  2   force =    -0.00000064    0.00000115    0.00161536
     atom   17 type  2   force =    -0.00000095    0.00000074   -0.00236007
     atom   18 type  2   force =     0.00000529    0.00000141    0.00001006
     atom   19 type  1   force =     0.00000474    0.00000987    0.00002563
     atom   20 type  1   force =     0.00002101   -0.00001806   -0.00038856
     atom   21 type  2   force =    -0.00015566    0.00014256   -0.00016164
     atom   22 type  2   force =    -0.00000305    0.00000648    0.00004205
     atom   23 type  2   force =    -0.00001432   -0.00000167    0.00001928
     atom   24 type  2   force =     0.00032982   -0.00010677   -0.00019016
     atom   25 type  1   force =    -0.00000001    0.00000062    0.00068810
     atom   26 type  1   force =     0.00000035   -0.00000791    0.00001524
     atom   27 type  2   force =    -0.00000000    0.00000348    0.00000064
     atom   28 type  2   force =    -0.00000074    0.00000129    0.00161537
     atom   29 type  2   force =    -0.00000103    0.00000071   -0.00235998
     atom   30 type  2   force =     0.00000210   -0.00000324    0.00000828
     atom   31 type  1   force =     0.00000156    0.00000455    0.00000447
     atom   32 type  1   force =    -0.00008225    0.00005002    0.00007405
     atom   33 type  2   force =    -0.00023274    0.00028516    0.00003988
     atom   34 type  2   force =    -0.00001747    0.00001429    0.00001947
     atom   35 type  2   force =     0.00000642    0.00000558    0.00002087
     atom   36 type  2   force =     0.00009611   -0.00001336    0.00025071
     atom   37 type  1   force =     0.00000093    0.00000081    0.00068847
     atom   38 type  1   force =     0.00002574    0.00002283   -0.00000610
     atom   39 type  2   force =    -0.00000066    0.00000249    0.00000493
     atom   40 type  2   force =    -0.00000085    0.00000154    0.00161539
     atom   41 type  2   force =    -0.00000108    0.00000084   -0.00235980
     atom   42 type  2   force =    -0.00000135   -0.00000018    0.00000906
     atom   43 type  1   force =     0.00000845   -0.00001601    0.00001346
     atom   44 type  1   force =    -0.00004503   -0.00000329    0.00023950
     atom   45 type  2   force =     0.00008749   -0.00008888    0.00018926
     atom   46 type  2   force =    -0.00001258   -0.00000940    0.00001614
     atom   47 type  2   force =     0.00000088   -0.00000299    0.00001562
     atom   48 type  2   force =     0.00011529    0.00019156    0.00033470
     atom   49 type  1   force =     0.00000028    0.00000082    0.00068803
     atom   50 type  1   force =    -0.00002478   -0.00002583   -0.00000098
     atom   51 type  2   force =    -0.00000087    0.00000352    0.00000560
     atom   52 type  2   force =    -0.00000103    0.00000136    0.00161560
     atom   53 type  2   force =    -0.00000122    0.00000083   -0.00235977
     atom   54 type  2   force =    -0.00000043    0.00000560    0.00000781
     atom   55 type  1   force =     0.00000613   -0.00002040    0.00002554
     atom   56 type  1   force =     0.00004456   -0.00008336   -0.00020079
     atom   57 type  2   force =    -0.00006248   -0.00021884   -0.00000726
     atom   58 type  2   force =     0.00001319   -0.00000995    0.00002519
     atom   59 type  2   force =    -0.00001030   -0.00001117    0.00002483
     atom   60 type  2   force =     0.00008465    0.00002813   -0.00011641
[...]
     atom  181 type  1   force =     0.00000040    0.00000019    0.00068858
     atom  182 type  1   force =    -0.00001073   -0.00000736    0.00000212
     atom  183 type  2   force =    -0.00000253   -0.00000040    0.00000448
     atom  184 type  2   force =    -0.00000091    0.00000129    0.00161541
     atom  185 type  2   force =    -0.00000107    0.00000081   -0.00235981
     atom  186 type  2   force =    -0.00000370   -0.00000376    0.00000153
     atom  187 type  1   force =     0.00000348    0.00001469    0.00000262
     atom  188 type  1   force =     0.00002662    0.00012409    0.00027137
     atom  189 type  2   force =    -0.00005058   -0.00039705    0.00012013
     atom  190 type  2   force =    -0.00001152    0.00001928    0.00003308
     atom  191 type  2   force =     0.00001233   -0.00000391    0.00000799
     atom  192 type  2   force =    -0.00012079    0.00010501    0.00009890
     atom  193 type  3   force =    -0.00001960   -0.00005157   -0.00041043
     atom  194 type  4   force =     0.00034055   -0.00015866   -0.00004387
     atom  195 type  4   force =     0.00010777    0.00019110    0.00050179

     Total force =     0.003007     Total SCF correction =     0.000224
     Energy error            =      1.8E-05 Ry
     Gradient error          =      9.0E-04 Ry/Bohr

     bfgs converged in  19 scf cycles and  18 bfgs steps
     (criteria: energy <  1.0E-04 Ry, force <  1.0E-03 Ry/Bohr)

     End of BFGS Geometry Optimization

     Final energy             =  -34492.2643922898 Ry

     File ./outdir/pwscf.bfgs deleted, as requested
Begin final coordinates

ATOMIC_POSITIONS (angstrom)
Mo               0.0000119917        1.8193638619       -9.1672481230    0   0   0
Mo               1.5756136568        0.9097075315       -3.0554901653    0   0   0
S                0.0000188998        1.8193822938       -4.6232556019    0   0   0
S                1.5756321638        0.9096773839       -7.6014065489    0   0   0
S                1.5756326175        0.9096785128      -10.7330757790    0   0   0
S                0.0000189190        1.8193860094       -1.4877129945    0   0   0
Mo               0.0001056277        1.8193738375        3.0566198832
Mo               1.5770864142        0.9010539585        9.1698607969
S               -0.0007730495        1.8345742577        7.6227339824
S                1.5749356921        0.9094405730        4.6244954300
S                1.5758830972        0.9095082442        1.4891488923
S               -0.0027811542        1.7538564577       10.7923588801
Mo              -1.5756053507        4.5484193819       -9.1672481230    0   0   0
Mo               0.0000378379        3.6387394919       -3.0554952701    0   0   0
S               -1.5755913433        4.5484363582       -4.6232494962    0   0   0
S                0.0000148214        3.6387329039       -7.6014065489    0   0   0
S                0.0000152751        3.6387340328      -10.7330757790    0   0   0
S               -1.5755906502        4.5484413613       -1.4877305502    0   0   0
Mo              -1.5752692020        4.5480942542        3.0572843643
Mo              -0.0104385006        3.6238163042        9.2018141947
S               -1.5678778270        4.5472874354        7.6269800978
S                0.0001739880        3.6383677994        4.6254785541
S                0.0005184747        3.6389206179        1.4894182014
S               -1.6483549628        4.5826308387       10.7698334708
Mo              -3.1512226931        7.2774749019       -9.1672481230    0   0   0
Mo              -1.5755910988        6.3678216792       -3.0555115988    0   0   0
S               -3.1512162438        7.2774954350       -4.6232578178    0   0   0
S               -1.5756025210        6.3677884239       -7.6014065489    0   0   0
S               -1.5756020673        6.3677895528      -10.7330757790    0   0   0
S               -3.1512127704        7.2774877076       -1.4877200710    0   0   0
Mo              -3.1511463618        7.2770016050        3.0574172330
Mo              -1.5954141710        6.3795545390        9.1801785968
S               -3.1576790941        7.2745375697        7.5953172134
S               -1.5753096226        6.3670796701        4.6255473398
S               -1.5754642849        6.3673809122        1.4895824092
S               -3.1643581012        7.2929657234       10.7440711403
Mo              -4.7268400355       10.0065304219       -9.1672481230    0   0   0
Mo              -3.1512405618        9.0968403586       -3.0554816746    0   0   0
S               -4.7268341792       10.0065523623       -4.6232463762    0   0   0
S               -3.1512198634        9.0968439439       -7.6014065489    0   0   0
S               -3.1512194097        9.0968450728      -10.7330757790    0   0   0
S               -4.7268370797       10.0065537885       -1.4877176751    0   0   0
Mo              -4.7269396227       10.0061575179        3.0568367492
Mo              -3.1549857876        9.0965222144        9.1618910110
S               -4.7361070075       10.0031281665        7.5975509508
S               -3.1512541180        9.0966326635        4.6245311066
S               -3.1512125325        9.0962278491        1.4891932083
S               -4.7185568878       10.0057535418       10.7404920015
Mo               3.1512517547        1.8193638619       -9.1672481230    0   0   0
Mo               4.7269020221        0.9097289540       -3.0554823951    0   0   0
S                3.1512612351        1.8193882564       -4.6232320683    0   0   0
S                4.7268719268        0.9096773839       -7.6014065489    0   0   0
S                4.7268723805        0.9096785128      -10.7330757790    0   0   0
S                3.1512592485        1.8193890201       -1.4877261251    0   0   0
Mo               3.1512643400        1.8191172002        3.0573863236
Mo               4.7293818510        0.8989949798        9.1491116324
S                3.1496631902        1.7957309162        7.5743396127
S                4.7274405574        0.9090355559        4.6239961543
S                4.7268357756        0.9093792091        1.4891368395
S                3.1648487498        1.7888897098       10.7260131802
[...]
Mo               4.7268792535       10.0065304219       -9.1672481230    0   0   0
Mo               6.3025111524        9.0968738021       -3.0554915260    0   0   0
S                4.7268840634       10.0065452125       -4.6232380477    0   0   0
S                6.3024994256        9.0968439439       -7.6014065489    0   0   0
S                6.3024998793        9.0968450728      -10.7330757790    0   0   0
S                4.7268847312       10.0065459141       -1.4877283294    0   0   0
Mo               4.7270051748       10.0061235966        3.0573762449
Mo               6.3028582038        9.1023057150        9.1801717521
S                4.7386821334       10.0195692490        7.5914950373
S                6.3026392113        9.0957881386        4.6246151155
S                6.3023495488        9.0965797951        1.4890670482
S                4.7270644433       10.0188287202       10.7412580002
Pt               1.6317491897        6.2661109219       12.1185998594
Pd               0.0803574774        3.7930617974       12.1840066137
Pd               4.5915832050        6.3195785393       12.1503365154
End final coordinates

     Writing all to output data dir ./outdir/pwscf.save/ :
     XML data file, charge density, pseudopotentials, collected wavefunctions

     General routines

     Parallel routines

   This run was terminated on:  11:26:26   1May2024

   JOB DONE.