     Program PWSCF v.7.2 starts on 11Oct2023 at 15:17: 7

     Waiting for input...
     Reading input from standard input
Warning: card &CELL ignored
Warning: card / ignored

     Current dimensions of program PWSCF are:
     Max number of different atomic species (ntypx) = 10
     Max number of k-points (npk) =  40000
     Max angular momentum in pseudopotentials (lmaxx) =  4
     file Mo.pbe-spn-kjpaw_psl.1.0.0.UPF: wavefunction(s)  4S 4D renormalized
     file S.pbe-n-kjpaw_psl.1.0.0.UPF: wavefunction(s)  3S 3P renormalized
     file Pd.pbe-spn-kjpaw_psl.1.0.0.UPF: wavefunction(s)  4S 5S 4D renormalized

     R & G space division:  proc/nbgrp/npool/nimage =      36
     Subspace diagonalization in iterative solution of the eigenvalue problem:
     one sub-group per band group will be used

     Using Slab Decomposition

     bravais-lattice index     =            0
     lattice parameter (alat)  =      23.8199  a.u.
     unit-cell volume          =   33861.0370 (a.u.)^3
     number of atoms/cell      =          194
     number of atomic types    =            3
     number of electrons       =      1700.00
     number of Kohn-Sham states=         1020
     kinetic-energy cutoff     =      77.0000  Ry
     charge density cutoff     =     539.0000  Ry
     scf convergence threshold =      1.0E-06
     mixing beta               =       0.2000
     number of iterations used =            8  plain     mixing
     energy convergence thresh.=      1.0E-04
     force convergence thresh. =      1.0E-03
     Exchange-correlation= SLA  PW   PBX  PBC
                           (   1   4   3   4   0   0   0)
     nstep                     =         1000

     Effective Screening Medium Method
     Boundary Conditions: Vacuum-Slab-Vacuum
     total charge in unit cell        =   0.0000
     grid points for fit at edges     =        4

     celldm(1)=  23.819920  celldm(2)=   0.000000  celldm(3)=   0.000000
     celldm(4)=   0.000000  celldm(5)=   0.000000  celldm(6)=   0.000000

     crystal axes: (cart. coord. in units of alat)
               a(1) = (   1.000000   0.000000   0.000000 )
               a(2) = (  -0.499999   0.866026   0.000000 )
               a(3) = (   0.000000   0.000000   2.893000 )

     reciprocal axes: (cart. coord. in units 2 pi/alat)
               b(1) = (  1.000000  0.577349  0.000000 )
               b(2) = (  0.000000  1.154700  0.000000 )
               b(3) = (  0.000000  0.000000  0.345662 )

     PseudoPot. # 1 for Mo read from file:
     ./pseudo/Mo.pbe-spn-kjpaw_psl.1.0.0.UPF
     MD5 check sum: 317bf72632116215fd98f72de1686f13
     Pseudo is Projector augmented-wave + core cor, Zval = 14.0
     Generated using 'atomic' code by A. Dal Corso  v.7.2
     Shape of augmentation charge: PSQ
     Using radial grid of 1229 points,  6 beta functions with:
                l(1) =   0
                l(2) =   0
                l(3) =   1
                l(4) =   1
                l(5) =   2
                l(6) =   2
     Q(r) pseudized with 0 coefficients

     PseudoPot. # 2 for S  read from file:
     ./pseudo/S.pbe-n-kjpaw_psl.1.0.0.UPF
     MD5 check sum: 8b7b5302570d38d5e87fed6a1065abda
     Pseudo is Projector augmented-wave + core cor, Zval =  6.0
     Generated using 'atomic' code by A. Dal Corso  v.7.2
     Shape of augmentation charge: PSQ
     Using radial grid of 1151 points,  6 beta functions with:
                l(1) =   0
                l(2) =   0
                l(3) =   1
                l(4) =   1
                l(5) =   2
                l(6) =   2
     Q(r) pseudized with 0 coefficients

     PseudoPot. # 3 for Pd read from file:
     ./pseudo/Pd.pbe-spn-kjpaw_psl.1.0.0.UPF
     MD5 check sum: a60571a671f2502b8a6a4569d20a6edb
     Pseudo is Projector augmented-wave + core cor, Zval = 18.0
     Generated using 'atomic' code by A. Dal Corso  v.7.2
     Shape of augmentation charge: PSQ
     Using radial grid of 1235 points,  6 beta functions with:
                l(1) =   0
                l(2) =   0
                l(3) =   1
                l(4) =   1
                l(5) =   2
                l(6) =   2
     Q(r) pseudized with 0 coefficients

     atomic species   valence    mass     pseudopotential
        Mo            14.00    95.95000     Mo( 1.00)
        S              6.00    32.06000     S ( 1.00)
        Pd            18.00   106.42000     Pd( 1.00)

     No symmetry found

   Cartesian axes

     site n.     atom                  positions (alat units)
         1           Mo  tau(   1) = (   0.0000010   0.1443372  -0.7272732  )
         2           Mo  tau(   2) = (   0.1249995   0.0721706  -0.2424038  )
         3           S   tau(   3) = (   0.0000015   0.1443386  -0.3667807  )
         4           S   tau(   4) = (   0.1250010   0.0721682  -0.6030489  )
         5           S   tau(   5) = (   0.1250010   0.0721683  -0.8514963  )
         6           S   tau(   6) = (   0.0000015   0.1443389  -0.1180260  )
         7           Mo  tau(   7) = (   0.0000007   0.1443589   0.2424205  )
         8           Mo  tau(   8) = (   0.1250041   0.0720322   0.7266168  )
         9           S   tau(   9) = (   0.0000742   0.1444871   0.6020949  )
        10           S   tau(  10) = (   0.1250024   0.0721701   0.3667478  )
        11           S   tau(  11) = (   0.1250035   0.0721876   0.1180348  )
        12           S   tau(  12) = (  -0.0004118   0.1430864   0.8514340  )
        13           Mo  tau(  13) = (  -0.1249989   0.3608437  -0.7272732  )
        14           Mo  tau(  14) = (   0.0000030   0.2886752  -0.2424042  )
        15           S   tau(  15) = (  -0.1249977   0.3608450  -0.3667802  )
        16           S   tau(  16) = (   0.0000012   0.2886747  -0.6030489  )
        17           S   tau(  17) = (   0.0000012   0.2886748  -0.8514963  )
        18           S   tau(  18) = (  -0.1249977   0.3608454  -0.1180274  )
        19           Mo  tau(  19) = (  -0.1249729   0.3608584   0.2424608  )
        20           Mo  tau(  20) = (  -0.0007193   0.2876626   0.7275440  )
        21           S   tau(  21) = (  -0.1251115   0.3607789   0.6027257  )
        22           S   tau(  22) = (   0.0000621   0.2887099   0.3668377  )
        23           S   tau(  23) = (  -0.0000096   0.2886902   0.1180527  )
        24           S   tau(  24) = (  -0.1254673   0.3605734   0.8517408  )
        25           Mo  tau(  25) = (  -0.2499987   0.5773502  -0.7272732  )
        26           Mo  tau(  26) = (  -0.1249977   0.5051839  -0.2424055  )
        27           S   tau(  27) = (  -0.2499981   0.5773518  -0.3667809  )
        28           S   tau(  28) = (  -0.1249986   0.5051812  -0.6030489  )
        29           S   tau(  29) = (  -0.1249986   0.5051813  -0.8514963  )
        30           S   tau(  30) = (  -0.2499979   0.5773512  -0.1180266  )
        31           Mo  tau(  31) = (  -0.2499795   0.5773389   0.2424205  )
        32           Mo  tau(  32) = (  -0.1262356   0.5050639   0.7275441  )
        33           S   tau(  33) = (  -0.2498323   0.5773390   0.6020948  )
        34           S   tau(  34) = (  -0.1249376   0.5052159   0.3668377  )
        35           S   tau(  35) = (  -0.1249905   0.5051638   0.1180531  )
        36           S   tau(  36) = (  -0.2512883   0.5776183   0.8514340  )
        37           Mo  tau(  37) = (  -0.3749985   0.7938567  -0.7272732  )
        38           Mo  tau(  38) = (  -0.2500001   0.7216874  -0.2424031  )
        39           S   tau(  39) = (  -0.3749980   0.7938584  -0.3667800  )
        40           S   tau(  40) = (  -0.2499984   0.7216877  -0.6030489  )
        41           S   tau(  41) = (  -0.2499984   0.7216878  -0.8514963  )
        42           S   tau(  42) = (  -0.3749982   0.7938585  -0.1180264  )
        43           Mo  tau(  43) = (  -0.3749962   0.7938568   0.2423838  )
        44           Mo  tau(  44) = (  -0.2501148   0.7217588   0.7266170  )
        45           S   tau(  45) = (  -0.3749945   0.7938590   0.6021274  )
        46           S   tau(  46) = (  -0.2499958   0.7216877   0.3667488  )
        47           S   tau(  47) = (  -0.2499810   0.7216794   0.1180323  )
        48           S   tau(  48) = (  -0.3749953   0.7938585   0.8511588  )
        49           Mo  tau(  49) = (   0.2500010   0.1443372  -0.7272732  )
        50           Mo  tau(  50) = (   0.3750034   0.0721723  -0.2424032  )
        51           S   tau(  51) = (   0.2500017   0.1443391  -0.3667788  )
        52           S   tau(  52) = (   0.3750010   0.0721682  -0.6030489  )
        53           S   tau(  53) = (   0.3750010   0.0721683  -0.8514963  )
        54           S   tau(  54) = (   0.2500016   0.1443391  -0.1180271  )
        55           Mo  tau(  55) = (   0.2500054   0.1443594   0.2424211  )
        56           Mo  tau(  56) = (   0.3749279   0.0721263   0.7263991  )
        57           S   tau(  57) = (   0.2499344   0.1444864   0.6020948  )
        58           S   tau(  58) = (   0.3750316   0.0721860   0.3667597  )
        59           S   tau(  59) = (   0.3749924   0.0721644   0.1180346  )
        60           S   tau(  60) = (   0.2504199   0.1430865   0.8514340  )
[...]
       180           S   tau( 180) = (   0.5012979   0.5776190   0.8514332  )
       181           Mo  tau( 181) = (   0.3750016   0.7938567  -0.7272732  )
       182           Mo  tau( 182) = (   0.5000025   0.7216901  -0.2424039  )
       183           S   tau( 183) = (   0.3750019   0.7938578  -0.3667793  )
       184           S   tau( 184) = (   0.5000016   0.7216877  -0.6030489  )
       185           S   tau( 185) = (   0.5000016   0.7216878  -0.8514963  )
       186           S   tau( 186) = (   0.3750020   0.7938579  -0.1180272  )
       187           Mo  tau( 187) = (   0.3749848   0.7938487   0.2424206  )
       188           Mo  tau( 188) = (   0.5001249   0.7217591   0.7266160  )
       189           S   tau( 189) = (   0.3749125   0.7937251   0.6020942  )
       190           S   tau( 190) = (   0.5000021   0.7216868   0.3667472  )
       191           S   tau( 191) = (   0.4999874   0.7216780   0.1180346  )
       192           S   tau( 192) = (   0.3758826   0.7948451   0.8514332  )
       193           Pd  tau( 193) = (   0.1250063   0.5051842   0.9601361  )
       194           Pd  tau( 194) = (   0.2527577   0.4314440   1.1003606  )

     DFT-D3 Dispersion Correction (3-body terms):
       Reference C6 values for interpolation:

         atom   Coordination number   C6
         S          0.000           268.01
         S          0.995           261.99
         S          1.990           251.62
         Mo         0.000          1691.79
         Mo         1.942          1004.01
         Mo        11.056           674.22
         Pd         0.000          1217.01
         Pd         1.863           573.90
         Pd         5.710           531.75

       Values used:

         atom   Coordination number  R0_AB[au]  C6      C8
         Mo        10.208            3.547    674.22  77634.20
         Mo        10.221            3.547    674.22  77634.20
         S          3.858            3.128    251.62  12327.25
         S          3.859            3.128    251.62  12327.25
[...]
     atom   15 type  2   force =     0.00000000    0.00000000    0.00000000
     atom   16 type  2   force =     0.00000000    0.00000000    0.00000000
     atom   17 type  2   force =     0.00000000    0.00000000    0.00000000
     atom   18 type  2   force =     0.00000000    0.00000000    0.00000000
     atom   19 type  1   force =    -0.00000656   -0.00000818   -0.00007501
     atom   20 type  1   force =     0.00000792   -0.00001915    0.00000026
     atom   21 type  2   force =    -0.00000807   -0.00000231   -0.00000773
     atom   22 type  2   force =     0.00000320   -0.00000265   -0.00001584
     atom   23 type  2   force =     0.00000161   -0.00000370   -0.00001991
     atom   24 type  2   force =     0.00000296   -0.00001178   -0.00000544
     atom   25 type  1   force =     0.00000000    0.00000000    0.00000000
     atom   26 type  1   force =     0.00000000    0.00000000    0.00000000
     atom   27 type  2   force =     0.00000000    0.00000000    0.00000000
     atom   28 type  2   force =     0.00000000    0.00000000    0.00000000
     atom   29 type  2   force =     0.00000000    0.00000000    0.00000000
     atom   30 type  2   force =     0.00000000    0.00000000    0.00000000
     atom   31 type  1   force =    -0.00001026   -0.00000200   -0.00007128
     atom   32 type  1   force =     0.00000833   -0.00000045   -0.00006032
     atom   33 type  2   force =    -0.00000250   -0.00000291   -0.00001095
     atom   34 type  2   force =    -0.00000329   -0.00000257   -0.00001672
     atom   35 type  2   force =    -0.00000216   -0.00000302   -0.00002180
     atom   36 type  2   force =    -0.00000993   -0.00000558    0.00000116
     atom   37 type  1   force =     0.00000000    0.00000000    0.00000000
     atom   38 type  1   force =     0.00000000    0.00000000    0.00000000
     atom   39 type  2   force =     0.00000000    0.00000000    0.00000000
     atom   40 type  2   force =     0.00000000    0.00000000    0.00000000
     atom   41 type  2   force =     0.00000000    0.00000000    0.00000000
     atom   42 type  2   force =     0.00000000    0.00000000    0.00000000
     atom   43 type  1   force =    -0.00000247    0.00000193   -0.00007606
     atom   44 type  1   force =    -0.00001104    0.00000605   -0.00007423
     atom   45 type  2   force =    -0.00000254    0.00000136   -0.00000843
     atom   46 type  2   force =    -0.00000150    0.00000083   -0.00001855
     atom   47 type  2   force =    -0.00000268    0.00000156   -0.00001993
     atom   48 type  2   force =    -0.00000709    0.00000407   -0.00000340
     atom   49 type  1   force =     0.00000000    0.00000000    0.00000000
     atom   50 type  1   force =     0.00000000    0.00000000    0.00000000
     atom   51 type  2   force =     0.00000000    0.00000000    0.00000000
     atom   52 type  2   force =     0.00000000    0.00000000    0.00000000
     atom   53 type  2   force =     0.00000000    0.00000000    0.00000000
     atom   54 type  2   force =     0.00000000    0.00000000    0.00000000
     atom   55 type  1   force =     0.00000704    0.00000266   -0.00008049
     atom   56 type  1   force =    -0.00000276    0.00003282   -0.00001594
     atom   57 type  2   force =     0.00000014    0.00000073   -0.00000257
     atom   58 type  2   force =     0.00000121    0.00000644   -0.00001864
     atom   59 type  2   force =     0.00000165    0.00000639   -0.00001706
     atom   60 type  2   force =     0.00000207    0.00000764   -0.00001229
[...]
     atom  180 type  2   force =    -0.00000538   -0.00000576   -0.00001250
     atom  181 type  1   force =     0.00000000    0.00000000    0.00000000
     atom  182 type  1   force =     0.00000000    0.00000000    0.00000000
     atom  183 type  2   force =     0.00000000    0.00000000    0.00000000
     atom  184 type  2   force =     0.00000000    0.00000000    0.00000000
     atom  185 type  2   force =     0.00000000    0.00000000    0.00000000
     atom  186 type  2   force =     0.00000000    0.00000000    0.00000000
     atom  187 type  1   force =     0.00000641    0.00000090   -0.00007835
     atom  188 type  1   force =    -0.00002691   -0.00001069   -0.00000972
     atom  189 type  2   force =     0.00000379    0.00000427   -0.00000398
     atom  190 type  2   force =     0.00000090   -0.00000318   -0.00001630
     atom  191 type  2   force =     0.00000099   -0.00000147   -0.00001790
     atom  192 type  2   force =    -0.00000050   -0.00000169   -0.00001208
     atom  193 type  3   force =     0.00003867   -0.00002284    0.00002043
     atom  194 type  3   force =    -0.00003021    0.00001740   -0.00000223

     DFT-D3 dispersion contribution to forces:
     atom    1 type  1   force =     0.00000001    0.00000003    0.00255962
     atom    2 type  1   force =     0.00000008    0.00000006    0.00000634
     atom    3 type  2   force =     0.00000003    0.00000001   -0.00003409
     atom    4 type  2   force =    -0.00000001   -0.00000001    0.00017150
     atom    5 type  2   force =     0.00000000   -0.00000002    0.00441440
     atom    6 type  2   force =    -0.00000002    0.00000013    0.00009243
     atom    7 type  1   force =    -0.00000131   -0.00000953   -0.00002457
     atom    8 type  1   force =     0.00008279    0.00021715   -0.00228270
     atom    9 type  2   force =     0.00001349   -0.00000021   -0.00009292
     atom   10 type  2   force =    -0.00000488   -0.00001621    0.00002288
     atom   11 type  2   force =     0.00000036   -0.00000038   -0.00009383
     atom   12 type  2   force =     0.00023942    0.00037771   -0.00422830
     atom   13 type  1   force =     0.00000004    0.00000002    0.00255962
     atom   14 type  1   force =     0.00000014    0.00000009    0.00000649
     atom   15 type  2   force =     0.00000002   -0.00000001   -0.00003405
     atom   16 type  2   force =     0.00000001    0.00000000    0.00017151
     atom   17 type  2   force =    -0.00000000   -0.00000000    0.00441431
     atom   18 type  2   force =     0.00000009    0.00000011    0.00009242
     atom   19 type  1   force =    -0.00000828   -0.00000954   -0.00004310
     atom   20 type  1   force =     0.00037111    0.00034170   -0.00193278
     atom   21 type  2   force =     0.00003710   -0.00000166   -0.00006209
     atom   22 type  2   force =    -0.00000276   -0.00002033    0.00002063
     atom   23 type  2   force =     0.00000086   -0.00000038   -0.00009741
     atom   24 type  2   force =     0.00056002    0.00026982   -0.00415946
     atom   25 type  1   force =     0.00000003   -0.00000005    0.00255958
     atom   26 type  1   force =     0.00000014   -0.00000003    0.00000640
     atom   27 type  2   force =    -0.00000001    0.00000000   -0.00003409
     atom   28 type  2   force =     0.00000001   -0.00000001    0.00017154
     atom   29 type  2   force =     0.00000002   -0.00000006    0.00441439
     atom   30 type  2   force =     0.00000002   -0.00000008    0.00009239
     atom   31 type  1   force =    -0.00001259    0.00000102   -0.00003284
     atom   32 type  1   force =     0.00038370   -0.00002609   -0.00211252
     atom   33 type  2   force =    -0.00000708    0.00001550   -0.00011052
     atom   34 type  2   force =    -0.00001333    0.00000442    0.00001865
     atom   35 type  2   force =    -0.00000024    0.00000019   -0.00009873
     atom   36 type  2   force =     0.00019620   -0.00008199   -0.00430186
     atom   37 type  1   force =    -0.00000001   -0.00000000    0.00255961
     atom   38 type  1   force =     0.00000004   -0.00000000    0.00000628
     atom   39 type  2   force =     0.00000000    0.00000002   -0.00003409
     atom   40 type  2   force =    -0.00000002    0.00000000    0.00017149
     atom   41 type  2   force =    -0.00000005    0.00000003    0.00441448
     atom   42 type  2   force =     0.00000002    0.00000001    0.00009241
     atom   43 type  1   force =    -0.00000375    0.00000217   -0.00001218
     atom   44 type  1   force =     0.00006568   -0.00003792   -0.00241355
     atom   45 type  2   force =    -0.00000855    0.00000494   -0.00013810
     atom   46 type  2   force =    -0.00002406    0.00001389    0.00002495
     atom   47 type  2   force =    -0.00000047    0.00000027   -0.00009507
     atom   48 type  2   force =    -0.00001391    0.00000801   -0.00438123
     atom   49 type  1   force =     0.00000001    0.00000009    0.00255959
     atom   50 type  1   force =     0.00000008    0.00000014    0.00000647
     atom   51 type  2   force =    -0.00000002   -0.00000001   -0.00003408
     atom   52 type  2   force =     0.00000002    0.00000001    0.00017152
     atom   53 type  2   force =     0.00000001    0.00000002    0.00441437
     atom   54 type  2   force =     0.00000013    0.00000018    0.00009239
     atom   55 type  1   force =     0.00000102   -0.00000585   -0.00002440
     atom   56 type  1   force =    -0.00006278    0.00024344   -0.00221121
     atom   57 type  2   force =    -0.00001291    0.00005011   -0.00002902
     atom   58 type  2   force =    -0.00000445    0.00000198    0.00003000
     atom   59 type  2   force =    -0.00000034    0.00000018   -0.00009461
     atom   60 type  2   force =     0.00003771    0.00076042   -0.00396529
[...]
     atom  180 type  2   force =    -0.00063967   -0.00041282   -0.00396529
     atom  181 type  1   force =    -0.00000003   -0.00000002    0.00255963
     atom  182 type  1   force =    -0.00000005   -0.00000010    0.00000633
     atom  183 type  2   force =    -0.00000002   -0.00000004   -0.00003408
     atom  184 type  2   force =     0.00000001    0.00000001    0.00017152
     atom  185 type  2   force =     0.00000002    0.00000001    0.00441440
     atom  186 type  2   force =    -0.00000016   -0.00000005    0.00009241
     atom  187 type  1   force =     0.00000760    0.00000590   -0.00002458
     atom  188 type  1   force =    -0.00014668   -0.00018031   -0.00228266
     atom  189 type  2   force =     0.00000693   -0.00001158   -0.00009292
     atom  190 type  2   force =     0.00001160    0.00001233    0.00002288
     atom  191 type  2   force =     0.00000051   -0.00000012   -0.00009384
     atom  192 type  2   force =    -0.00020740   -0.00039626   -0.00422827
     atom  193 type  3   force =     0.00010487   -0.00006054   -0.00626087
     atom  194 type  3   force =     0.00014887   -0.00008603   -0.00642082

     Total force =     0.002595     Total SCF correction =     0.000379
     SCF correction compared to forces is large: reduce conv_thr to get better values
     Energy error            =      2.3E-05 Ry
     Gradient error          =      7.9E-04 Ry/Bohr

     bfgs converged in  34 scf cycles and  32 bfgs steps
     (criteria: energy <  1.0E-04 Ry, force <  1.0E-03 Ry/Bohr)

     End of BFGS Geometry Optimization

     Final energy             =  -32817.5913715553 Ry

     File ./outdir/pwscf.bfgs deleted, as requested
Begin final coordinates

ATOMIC_POSITIONS (angstrom)
Mo            0.0000119917        1.8193638619       -9.1672481230    0   0   0
Mo            1.5756136568        0.9097075315       -3.0554901653    0   0   0
S             0.0000188998        1.8193822938       -4.6232556019    0   0   0
S             1.5756321638        0.9096773839       -7.6014065489    0   0   0
S             1.5756326175        0.9096785128      -10.7330757790    0   0   0
S             0.0000189190        1.8193860094       -1.4877129945    0   0   0
Mo           -0.0009812401        1.8201036852        3.0600125726
Mo            1.5593297322        0.9159774672        9.1734623757
S            -0.0194584150        1.8290130292        7.6037431490
S             1.5745891177        0.9103657850        4.6274535356
S             1.5748810055        0.9102160836        1.4920905026
S            -0.0218528421        1.8114432562       10.7470859531
Mo           -1.5756053507        4.5484193819       -9.1672481230    0   0   0
Mo            0.0000378379        3.6387394919       -3.0554952701    0   0   0
S            -1.5755913433        4.5484363582       -4.6232494962    0   0   0
S             0.0000148214        3.6387329039       -7.6014065489    0   0   0
S             0.0000152751        3.6387340328      -10.7330757790    0   0   0
S            -1.5755906502        4.5484413613       -1.4877305502    0   0   0
Mo           -1.5764752505        4.5491312431        3.0603921804
Mo           -0.0352442784        3.6337741883        9.1837341339
S            -1.6014167902        4.5651047042        7.6199863548
S            -0.0006444033        3.6397629390        4.6282369687
S            -0.0010747887        3.6392864923        1.4920790329
S            -1.5973155371        4.5515913975       10.7605685189
Mo           -3.1512226931        7.2774749019       -9.1672481230    0   0   0
Mo           -1.5755910988        6.3678216792       -3.0555115988    0   0   0
S            -3.1512162438        7.2774954350       -4.6232578178    0   0   0
S            -1.5756025210        6.3677884239       -7.6014065489    0   0   0
S            -1.5756020673        6.3677895528      -10.7330757790    0   0   0
S            -3.1512127704        7.2774877076       -1.4877200710    0   0   0
Mo           -3.1519101683        7.2779055229        3.0601228521
Mo           -1.5995201012        6.3749275014        9.2025619372
S            -3.1576102594        7.2825441527        7.6170213122
S            -1.5759162719        6.3687492469        4.6284888577
S            -1.5764481006        6.3681600750        1.4921581161
S            -3.1807042350        7.2923935394       10.7584676485
Mo           -4.7268400355       10.0065304219       -9.1672481230    0   0   0
Mo           -3.1512405618        9.0968403586       -3.0554816746    0   0   0
S            -4.7268341792       10.0065523623       -4.6232463762    0   0   0
S            -3.1512198634        9.0968439439       -7.6014065489    0   0   0
S            -3.1512194097        9.0968450728      -10.7330757790    0   0   0
S            -4.7268370797       10.0065537885       -1.4877176751    0   0   0
Mo           -4.7276607921       10.0070360041        3.0598766916
Mo           -3.1664896046        9.1057033840        9.1808414043
S            -4.7385401080       10.0133298932        7.6062751359
S            -3.1519938784        9.0973236579        4.6279019226
S            -3.1518984338        9.0972686632        1.4921599791
S            -4.7443250641       10.0166693436       10.7446095181
Mo            3.1512517547        1.8193638619       -9.1672481230    0   0   0
Mo            4.7269020221        0.9097289540       -3.0554823951    0   0   0
S             3.1512612351        1.8193882564       -4.6232320683    0   0   0
S             4.7268719268        0.9096773839       -7.6014065489    0   0   0
S             4.7268723805        0.9096785128      -10.7330757790    0   0   0
S             3.1512592485        1.8193890201       -1.4877261251    0   0   0
Mo            3.1504474282        1.8200657566        3.0600780972
Mo            4.7082541394        0.9170167967        9.1818107530
S             3.1370299410        1.8172341329        7.6001463961
S             4.7264236934        0.9104019597        4.6276818987
S             4.7260105346        0.9100612723        1.4919811882
S             3.1355486091        1.8193523453       10.7454022804
[...]
S             6.2946942791        7.2911435261       10.7454008834
Mo            4.7268792535       10.0065304219       -9.1672481230    0   0   0
Mo            6.3025111524        9.0968738021       -3.0554915260    0   0   0
S             4.7268840634       10.0065452125       -4.6232380477    0   0   0
S             6.3024994256        9.0968439439       -7.6014065489    0   0   0
S             6.3024998793        9.0968450728      -10.7330757790    0   0   0
S             4.7268847312       10.0065459141       -1.4877283294    0   0   0
Mo            4.7257708376       10.0070662676        3.0600117180
Mo            6.2889321136        9.1078773921        9.1734621654
S             4.7088247585       10.0186335626        7.6037450331
S             6.3014107463        9.0974514987        4.6274550169
S             6.3016874797        9.0972715219        1.4920897550
S             4.7228487146       10.0294909896       10.7470882067
Pd            1.6461619093        6.3271176614       12.1016926576
Pd            4.0008623382        4.9678107485       12.8371181853
End final coordinates

     Writing all to output data dir ./outdir/pwscf.save/

     General routines

     Parallel routines

   This run was terminated on:   2:50:27  12Oct2023

   JOB DONE.
Application 11286124 resources: utime ~1481401s, stime ~15883s, Rss ~3515300, inblocks ~0, outblocks ~52153104