     Program PWSCF v.7.3 starts on 29Apr2024 at  6:40:51

     Waiting for input...
     Reading input from standard input
Warning: card &CELL ignored
Warning: card / ignored

     Current dimensions of program PWSCF are:
     Max number of different atomic species (ntypx) = 10
     Max number of k-points (npk) =  40000
     Max angular momentum in pseudopotentials (lmaxx) =  4
     file Mo.pbe-spn-kjpaw_psl.1.0.0.UPF: wavefunction(s)  4S 4D renormalized
     file S.pbe-n-kjpaw_psl.1.0.0.UPF: wavefunction(s)  3S 3P renormalized
     file Pt.pbe-spfn-kjpaw_psl.1.0.0.UPF: wavefunction(s)  5P 4F renormalized
     file Pd.pbe-spn-kjpaw_psl.1.0.0.UPF: wavefunction(s)  4S 5S 4D renormalized

     R & G space division:  proc/nbgrp/npool/nimage =      36
     Subspace diagonalization in iterative solution of the eigenvalue problem:
     one sub-group per band group will be used

     Using Slab Decomposition

     bravais-lattice index     =            0
     lattice parameter (alat)  =      23.8199  a.u.
     unit-cell volume          =   33861.0370 (a.u.)^3
     number of atoms/cell      =          195
     number of atomic types    =            4
     number of electrons       =      1732.00
     number of Kohn-Sham states=         1039
     kinetic-energy cutoff     =      77.0000  Ry
     charge density cutoff     =     539.0000  Ry
     scf convergence threshold =      1.0E-06
     mixing beta               =       0.2000
     number of iterations used =            8  plain     mixing
     energy convergence thresh.=      1.0E-04
     force convergence thresh. =      1.0E-03
     Exchange-correlation= SLA  PW   PBX  PBC
                           (   1   4   3   4   0   0   0)
     nstep                     =         1000

     Effective Screening Medium Method
     Boundary Conditions: Vacuum-Slab-Vacuum
     total charge in unit cell        =   0.0000
     grid points for fit at edges     =        4

     celldm(1)=  23.819920  celldm(2)=   0.000000  celldm(3)=   0.000000
     celldm(4)=   0.000000  celldm(5)=   0.000000  celldm(6)=   0.000000

     crystal axes: (cart. coord. in units of alat)
               a(1) = (   1.000000   0.000000   0.000000 )
               a(2) = (  -0.499999   0.866026   0.000000 )
               a(3) = (   0.000000   0.000000   2.893000 )

     reciprocal axes: (cart. coord. in units 2 pi/alat)
               b(1) = (  1.000000  0.577349  0.000000 )
               b(2) = (  0.000000  1.154700  0.000000 )
               b(3) = (  0.000000  0.000000  0.345662 )

     PseudoPot. # 1 for Mo read from file:
     ./pseudo/Mo.pbe-spn-kjpaw_psl.1.0.0.UPF
     MD5 check sum: 317bf72632116215fd98f72de1686f13
     Pseudo is Projector augmented-wave + core cor, Zval = 14.0
     Generated using 'atomic' code by A. Dal Corso  v.7.2
     Shape of augmentation charge: PSQ
     Using radial grid of 1229 points,  6 beta functions with:
                l(1) =   0
                l(2) =   0
                l(3) =   1
                l(4) =   1
                l(5) =   2
                l(6) =   2
     Q(r) pseudized with 0 coefficients

     PseudoPot. # 2 for S  read from file:
     ./pseudo/S.pbe-n-kjpaw_psl.1.0.0.UPF
     MD5 check sum: 8b7b5302570d38d5e87fed6a1065abda
     Pseudo is Projector augmented-wave + core cor, Zval =  6.0
     Generated using 'atomic' code by A. Dal Corso  v.7.2
     Shape of augmentation charge: PSQ
     Using radial grid of 1151 points,  6 beta functions with:
                l(1) =   0
                l(2) =   0
                l(3) =   1
                l(4) =   1
                l(5) =   2
                l(6) =   2
     Q(r) pseudized with 0 coefficients

     PseudoPot. # 3 for Pt read from file:
     ./pseudo/Pt.pbe-spfn-kjpaw_psl.1.0.0.UPF
     MD5 check sum: 620096ebf4e6ebacc94de60fd67efcb5
     Pseudo is Projector augmented-wave + core cor, Zval = 32.0
     Generated using 'atomic' code by A. Dal Corso  v.7.2
     Shape of augmentation charge: PSQ
     Using radial grid of 1277 points,  8 beta functions with:
                l(1) =   0
                l(2) =   0
                l(3) =   1
                l(4) =   1
                l(5) =   2
                l(6) =   2
                l(7) =   3
                l(8) =   3
     Q(r) pseudized with 0 coefficients

     PseudoPot. # 4 for Pd read from file:
     ./pseudo/Pd.pbe-spn-kjpaw_psl.1.0.0.UPF
     MD5 check sum: a60571a671f2502b8a6a4569d20a6edb
     Pseudo is Projector augmented-wave + core cor, Zval = 18.0
     Generated using 'atomic' code by A. Dal Corso  v.7.2
     Shape of augmentation charge: PSQ
     Using radial grid of 1235 points,  6 beta functions with:
                l(1) =   0
                l(2) =   0
                l(3) =   1
                l(4) =   1
                l(5) =   2
                l(6) =   2
     Q(r) pseudized with 0 coefficients

     atomic species   valence    mass     pseudopotential
     Mo               14.00    95.95000     Mo( 1.00)
     S                 6.00    32.06000     S ( 1.00)
     Pt               32.00   195.08400     Pt( 1.00)
     Pd               18.00   106.42000     Pd( 1.00)

     No symmetry found

   Cartesian axes

     site n.     atom                  positions (alat units)
         1        Mo     tau(   1) = (   0.0000010   0.1443372  -0.7272732  )
         2        Mo     tau(   2) = (   0.1249995   0.0721706  -0.2424038  )
         3        S      tau(   3) = (   0.0000015   0.1443386  -0.3667807  )
         4        S      tau(   4) = (   0.1250010   0.0721682  -0.6030489  )
         5        S      tau(   5) = (   0.1250010   0.0721683  -0.8514963  )
         6        S      tau(   6) = (   0.0000015   0.1443389  -0.1180260  )
         7        Mo     tau(   7) = (   0.0000005   0.1443381   0.2424561  )
         8        Mo     tau(   8) = (   0.1251981   0.0716023   0.7276027  )
         9        S      tau(   9) = (  -0.0003031   0.1454842   0.6052312  )
        10        S      tau(  10) = (   0.1249558   0.0721599   0.3668208  )
        11        S      tau(  11) = (   0.1250088   0.0721517   0.1180857  )
        12        S      tau(  12) = (  -0.0004157   0.1382876   0.8564685  )
        13        Mo     tau(  13) = (  -0.1249989   0.3608437  -0.7272732  )
        14        Mo     tau(  14) = (   0.0000030   0.2886752  -0.2424042  )
        15        S      tau(  15) = (  -0.1249977   0.3608450  -0.3667802  )
        16        S      tau(  16) = (   0.0000012   0.2886747  -0.6030489  )
        17        S      tau(  17) = (   0.0000012   0.2886748  -0.8514963  )
        18        S      tau(  18) = (  -0.1249977   0.3608454  -0.1180274  )
        19        Mo     tau(  19) = (  -0.1249623   0.3608201   0.2425155  )
        20        Mo     tau(  20) = (  -0.0007801   0.2872696   0.7308518  )
        21        S      tau(  21) = (  -0.1240398   0.3604107   0.6055268  )
        22        S      tau(  22) = (   0.0000411   0.2886546   0.3669163  )
        23        S      tau(  23) = (   0.0000035   0.2886726   0.1180964  )
        24        S      tau(  24) = (  -0.1315418   0.3638985   0.8543850  )
        25        Mo     tau(  25) = (  -0.2499987   0.5773502  -0.7272732  )
        26        Mo     tau(  26) = (  -0.1249977   0.5051839  -0.2424055  )
        27        S      tau(  27) = (  -0.2499981   0.5773518  -0.3667809  )
        28        S      tau(  28) = (  -0.1249986   0.5051812  -0.6030489  )
        29        S      tau(  29) = (  -0.1249986   0.5051813  -0.8514963  )
        30        S      tau(  30) = (  -0.2499979   0.5773512  -0.1180266  )
        31        Mo     tau(  31) = (  -0.2499787   0.5773156   0.2425145  )
        32        Mo     tau(  32) = (  -0.1271807   0.5060660   0.7281741  )
        33        S      tau(  33) = (  -0.2502658   0.5775034   0.6017985  )
        34        S      tau(  34) = (  -0.1249543   0.5051367   0.3669386  )
        35        S      tau(  35) = (  -0.1249864   0.5051552   0.1181399  )
        36        S      tau(  36) = (  -0.2525628   0.5785576   0.8514793  )
        37        Mo     tau(  37) = (  -0.3749985   0.7938567  -0.7272732  )
        38        Mo     tau(  38) = (  -0.2500001   0.7216874  -0.2424031  )
        39        S      tau(  39) = (  -0.3749980   0.7938584  -0.3667800  )
        40        S      tau(  40) = (  -0.2499984   0.7216877  -0.6030489  )
        41        S      tau(  41) = (  -0.2499984   0.7216878  -0.8514963  )
        42        S      tau(  42) = (  -0.3749982   0.7938585  -0.1180264  )
        43        Mo     tau(  43) = (  -0.3750043   0.7938372   0.2424536  )
        44        Mo     tau(  44) = (  -0.2503619   0.7218808   0.7263407  )
        45        S      tau(  45) = (  -0.3755748   0.7941519   0.6023691  )
        46        S      tau(  46) = (  -0.2500067   0.7216811   0.3668312  )
        47        S      tau(  47) = (  -0.2499793   0.7216445   0.1181126  )
        48        S      tau(  48) = (  -0.3746959   0.7932047   0.8515893  )
        49        Mo     tau(  49) = (   0.2500010   0.1443372  -0.7272732  )
        50        Mo     tau(  50) = (   0.3750034   0.0721723  -0.2424032  )
        51        S      tau(  51) = (   0.2500017   0.1443391  -0.3667788  )
        52        S      tau(  52) = (   0.3750010   0.0721682  -0.6030489  )
        53        S      tau(  53) = (   0.3750010   0.0721683  -0.8514963  )
        54        S      tau(  54) = (   0.2500016   0.1443391  -0.1180271  )
        55        Mo     tau(  55) = (   0.2500033   0.1443124   0.2424881  )
        56        Mo     tau(  56) = (   0.3752595   0.0716472   0.7255395  )
        57        S      tau(  57) = (   0.2498544   0.1431280   0.6011361  )
        58        S      tau(  58) = (   0.3750516   0.0721435   0.3668117  )
        59        S      tau(  59) = (   0.3750079   0.0721203   0.1180977  )
        60        S      tau(  60) = (   0.2517312   0.1427646   0.8506906  )
[...]
       181        Mo     tau( 181) = (   0.3750016   0.7938567  -0.7272732  )
       182        Mo     tau( 182) = (   0.5000025   0.7216901  -0.2424039  )
       183        S      tau( 183) = (   0.3750019   0.7938578  -0.3667793  )
       184        S      tau( 184) = (   0.5000016   0.7216877  -0.6030489  )
       185        S      tau( 185) = (   0.5000016   0.7216878  -0.8514963  )
       186        S      tau( 186) = (   0.3750020   0.7938579  -0.1180272  )
       187        Mo     tau( 187) = (   0.3749951   0.7938323   0.2424893  )
       188        Mo     tau( 188) = (   0.4998599   0.7217391   0.7271366  )
       189        S      tau( 189) = (   0.3746033   0.7939741   0.6029663  )
       190        S      tau( 190) = (   0.4999946   0.7216688   0.3668260  )
       191        S      tau( 191) = (   0.4999891   0.7216628   0.1180901  )
       192        S      tau( 192) = (   0.3755955   0.7938624   0.8526444  )
       193        Pt     tau( 193) = (   0.1194898   0.4990527   0.9549993  )
       194        Pd     tau( 194) = (   0.0026419   0.2990244   0.9662205  )
       195        Pd     tau( 195) = (   0.1251888   0.0716385   0.9754891  )

     DFT-D3 Dispersion Correction (3-body terms):
       Reference C6 values for interpolation:

[...]
   -40.6504 -40.6503 -40.6502 -40.6495 -40.6495 -40.6495 -40.6495 -40.6370
   -40.6318 -40.6270 -40.6156 -40.6156 -40.6156 -40.6156 -40.6156 -40.6156
   -40.6155 -40.6155 -40.6147 -40.6147 -40.6147 -40.6147 -40.6140 -40.6035
   -40.6035 -40.6035 -40.6034 -40.6026 -40.6026 -40.5963 -40.5923 -40.5875
   -40.5859 -40.5842 -40.5842 -40.5842 -40.5840 -40.5835 -40.5832 -40.5832
   -40.5672 -40.5672 -40.5672 -40.5671 -40.5662 -40.5662 -40.5659 -40.5630
   -40.5532 -40.5365 -40.5365 -40.5365 -40.5364 -40.5362 -40.5356 -40.5355
   -40.5355 -40.5172 -40.4945 -20.1051 -19.8778 -19.8493 -19.8218 -19.7521
   -19.7267 -19.6422 -19.6303 -19.5612 -19.4966 -19.4122 -19.4076 -19.3219
   -19.3141 -19.2171 -19.2108 -19.1122 -18.9593 -18.8507 -18.8074 -18.7725
   -18.7425 -18.7041 -18.7032 -18.7001 -18.6965 -18.6886 -18.6608 -18.6385
   -18.6360 -18.6280 -18.6195 -18.5963 -18.5810 -18.5589 -18.5422 -18.5353
   -18.5320 -18.5289 -18.5098 -18.5053 -18.4755 -18.4701 -18.4591 -18.4498
   -18.4320 -18.4105 -18.3930 -18.3881 -18.3851 -18.3628 -18.3426 -18.3279
   -18.3116 -18.3066 -18.2930 -18.2582 -18.2525 -18.2296 -18.2258 -18.1998
   -18.1740 -18.1697 -18.1604 -18.1465 -18.1202 -18.1116 -18.1050 -18.0930
   -18.0811 -18.0786 -18.0774 -18.0769 -18.0572 -18.0546 -18.0518 -18.0484
   -18.0477 -18.0444 -18.0386 -18.0352 -18.0326 -18.0248 -18.0132 -17.9919
   -17.9892 -17.9876 -17.9837 -17.9809 -17.9793 -17.9790 -17.9728 -17.9691
   -17.9608 -17.9337 -17.9271 -17.9231 -17.9166 -17.9138 -17.9058 -17.8802
   -17.8742 -17.8709 -17.8596 -17.8560 -17.8418 -17.8276 -17.8250 -17.8217
   -17.8194 -17.7995 -17.7994 -17.7988 -17.7980 -17.7976 -17.7969 -17.7856
   -17.7835 -17.7668 -17.7626 -17.7419 -17.7384 -17.7227 -17.7182 -17.7073
   -17.7045 -17.6991 -17.6987 -12.1575 -11.9506 -11.7424 -11.7188 -11.6843
   -11.6247 -11.5718 -11.5557 -11.5021 -11.4804 -11.4792 -11.4763 -11.4628
   -11.4608 -11.4434 -11.4348 -11.3928 -11.3869 -11.3826 -11.3717 -11.3586
   -11.3355 -11.3286 -11.3182 -11.3025 -11.2820 -11.2798 -11.2566 -11.2519
   -11.2466 -11.2418 -11.2373 -11.2346 -11.2160 -11.1917 -11.1902 -11.1803
   -11.1753 -11.1629 -11.1584 -11.1540 -11.1502 -11.1426 -11.1304 -11.1270
   -11.1136 -11.1098 -11.0950 -11.0695 -11.0604 -11.0545 -11.0305 -10.9952
   -10.9724 -10.9570 -10.9419 -10.9285 -10.9115 -10.8960 -10.8886 -10.8870
   -10.8651 -10.8630 -10.8328 -10.8208 -10.8168 -10.8164 -10.8086 -10.8005
   -10.7913 -10.7906 -10.7904 -10.7890 -10.7872 -10.7816 -10.7792 -10.7728
[...]
    -3.3813  -3.3583  -3.3334  -3.3311  -3.3268  -3.3236  -3.3219  -3.3195
    -3.3147  -3.3091  -3.2850  -3.2757  -3.2628  -3.2619  -3.2581  -3.2572
    -3.2562  -3.2556  -3.2492  -3.2319  -3.2289  -3.2222  -3.2157  -3.2092
    -3.2060  -3.2040  -3.1969  -3.1900  -3.1866  -3.1809  -3.1751  -3.1671
    -3.1597  -3.1564  -3.1519  -3.1478  -3.1398  -3.1397  -3.1367  -3.1308
    -3.1022  -3.0784  -3.0722  -3.0682  -3.0595  -3.0508  -3.0441  -3.0364
    -3.0137  -3.0059  -3.0015  -3.0003  -2.9989  -2.9987  -2.9948  -2.9922
    -2.9878  -2.9868  -2.9827  -2.9772  -2.9738  -2.9690  -2.9650  -2.9606
    -2.9585  -2.9528  -2.9500  -2.9478  -2.9456  -2.9414  -2.9306  -2.9250
    -2.9236  -2.9168  -2.9132  -2.9099  -2.9015  -2.8902  -2.8879  -2.8793
    -2.8702  -2.8698  -2.8593  -2.8546  -2.8502  -2.8233  -2.7837  -2.7796
    -2.7692  -2.7650  -2.7258  -2.7176  -2.7023  -2.6912  -2.6135  -2.5935
    -2.5873  -2.5784  -2.5636  -2.5511  -2.5445  -2.5274  -2.5233  -2.5186
    -2.5088  -2.5055  -2.5036  -2.4978  -2.4844  -2.4286  -2.4005  -2.3893
    -2.3813  -2.3764  -2.3714  -2.3623  -2.3599  -2.3282  -2.3271

     the Fermi energy is    -4.7042 ev

!    total energy              =  -34492.26013240 Ry
     total all-electron energy =   -677498.139819 Ry
     estimated scf accuracy    <          8.2E-09 Ry
     smearing contrib. (-TS)   =      -0.00000018 Ry
     internal energy E=F+TS    =  -34492.26013222 Ry

     The total energy is F=E-TS. E is the sum of the following terms:
     one-electron contribution = 1196638.41153075 Ry
     hartree contribution      = -598496.89436043 Ry
     xc contribution           =   -2041.78678508 Ry
     ewald contribution        = -609028.37105826 Ry
     DFT-D3 Dispersion         =      -5.46956287 Ry
     one-center paw contrib.   =  -21558.14989633 Ry

     convergence has been achieved in  11 iterations

     negative rho (up, down):  9.478E-04 0.000E+00

     Forces acting on atoms (cartesian axes, Ry/au):

     atom    1 type  1   force =     0.00000074    0.00000227    0.00068829
     atom    2 type  1   force =     0.00002560   -0.00000371    0.00000989
     atom    3 type  2   force =     0.00000071    0.00000288    0.00000188
     atom    4 type  2   force =    -0.00000119    0.00000316    0.00161538
     atom    5 type  2   force =    -0.00000151    0.00000260   -0.00235979
     atom    6 type  2   force =    -0.00000308    0.00000693    0.00002353
     atom    7 type  1   force =     0.00001002   -0.00000545    0.00001941
     atom    8 type  1   force =    -0.00001945   -0.00010058   -0.00066112
     atom    9 type  2   force =     0.00030590   -0.00001854   -0.00054072
     atom   10 type  2   force =     0.00001774   -0.00000309    0.00002101
     atom   11 type  2   force =    -0.00000826    0.00001254    0.00001633
     atom   12 type  2   force =    -0.00023503    0.00032792   -0.00044405
     atom   13 type  1   force =     0.00000026    0.00000237    0.00068824
     atom   14 type  1   force =    -0.00000981    0.00001702    0.00000243
     atom   15 type  2   force =     0.00000293    0.00000326    0.00000346
     atom   16 type  2   force =    -0.00000093    0.00000305    0.00161545
     atom   17 type  2   force =    -0.00000128    0.00000259   -0.00236005
     atom   18 type  2   force =     0.00000763    0.00000420    0.00001485
     atom   19 type  1   force =    -0.00000438    0.00001388    0.00000964
     atom   20 type  1   force =     0.00012810   -0.00019344   -0.00022356
     atom   21 type  2   force =     0.00028560   -0.00031381    0.00023737
     atom   22 type  2   force =    -0.00001349    0.00001205   -0.00001074
     atom   23 type  2   force =     0.00002106    0.00000622    0.00000798
     atom   24 type  2   force =     0.00024479   -0.00017264   -0.00049068
     atom   25 type  1   force =    -0.00000003    0.00000234    0.00068823
     atom   26 type  1   force =    -0.00000000   -0.00000608    0.00001770
     atom   27 type  2   force =    -0.00000034    0.00000536    0.00000067
     atom   28 type  2   force =    -0.00000105    0.00000323    0.00161535
     atom   29 type  2   force =    -0.00000140    0.00000266   -0.00236001
     atom   30 type  2   force =     0.00000303   -0.00000071    0.00001431
     atom   31 type  1   force =    -0.00000299   -0.00000430    0.00000994
     atom   32 type  1   force =     0.00007577    0.00005794    0.00003817
     atom   33 type  2   force =     0.00007724    0.00013651    0.00029984
     atom   34 type  2   force =     0.00000042    0.00000074    0.00002142
     atom   35 type  2   force =     0.00000690    0.00001211    0.00000936
     atom   36 type  2   force =    -0.00000081    0.00040600   -0.00008712
     atom   37 type  1   force =     0.00000108    0.00000237    0.00068885
     atom   38 type  1   force =     0.00002847    0.00002337   -0.00000441
     atom   39 type  2   force =    -0.00000100    0.00000439    0.00000557
     atom   40 type  2   force =    -0.00000123    0.00000341    0.00161537
     atom   41 type  2   force =    -0.00000150    0.00000273   -0.00235985
     atom   42 type  2   force =    -0.00000087    0.00000169    0.00002244
     atom   43 type  1   force =     0.00000248    0.00001977    0.00000315
     atom   44 type  1   force =    -0.00025005    0.00017719    0.00003177
     atom   45 type  2   force =     0.00005344   -0.00038341   -0.00034024
     atom   46 type  2   force =     0.00000043   -0.00000614   -0.00000321
     atom   47 type  2   force =     0.00001098    0.00001513    0.00000267
     atom   48 type  2   force =    -0.00013828    0.00001519   -0.00056244
     atom   49 type  1   force =    -0.00000019    0.00000213    0.00068844
     atom   50 type  1   force =    -0.00002471   -0.00002616   -0.00000273
     atom   51 type  2   force =    -0.00000123    0.00000532    0.00000577
     atom   52 type  2   force =    -0.00000152    0.00000313    0.00161563
     atom   53 type  2   force =    -0.00000165    0.00000265   -0.00235985
     atom   54 type  2   force =     0.00000165    0.00000775    0.00001751
     atom   55 type  1   force =    -0.00001304   -0.00000074    0.00000229
     atom   56 type  1   force =    -0.00042674    0.00004563   -0.00000361
     atom   57 type  2   force =    -0.00007028   -0.00011571   -0.00056936
     atom   58 type  2   force =    -0.00000205    0.00000372   -0.00001626
     atom   59 type  2   force =     0.00000136   -0.00000571    0.00000886
     atom   60 type  2   force =     0.00008884    0.00007900   -0.00073379
[...]
     atom  181 type  1   force =     0.00000060    0.00000259    0.00068865
     atom  182 type  1   force =    -0.00001274   -0.00000848    0.00000266
     atom  183 type  2   force =    -0.00000271    0.00000158    0.00000420
     atom  184 type  2   force =    -0.00000117    0.00000321    0.00161542
     atom  185 type  2   force =    -0.00000136    0.00000270   -0.00235989
     atom  186 type  2   force =    -0.00000238    0.00000143    0.00000766
     atom  187 type  1   force =    -0.00000647   -0.00000316    0.00001552
     atom  188 type  1   force =     0.00025299    0.00022616   -0.00001582
     atom  189 type  2   force =     0.00016097    0.00055683    0.00084499
     atom  190 type  2   force =    -0.00000904   -0.00000765   -0.00000361
     atom  191 type  2   force =    -0.00001409    0.00001816    0.00000482
     atom  192 type  2   force =     0.00038898    0.00016180   -0.00008241
     atom  193 type  3   force =     0.00023357   -0.00026392   -0.00013447
     atom  194 type  4   force =     0.00061322    0.00003693    0.00022477
     atom  195 type  4   force =    -0.00027661   -0.00018691    0.00066737

     Total force =     0.003436     Total SCF correction =     0.000533
     SCF correction compared to forces is large: reduce conv_thr to get better values
     Energy error            =      2.4E-05 Ry
     Gradient error          =      8.4E-04 Ry/Bohr

     bfgs converged in  26 scf cycles and  25 bfgs steps
     (criteria: energy <  1.0E-04 Ry, force <  1.0E-03 Ry/Bohr)

     End of BFGS Geometry Optimization

     Final energy             =  -34492.2601323983 Ry

     File ./outdir/pwscf.bfgs deleted, as requested
Begin final coordinates

ATOMIC_POSITIONS (angstrom)
Mo               0.0000119917        1.8193638619       -9.1672481230    0   0   0
Mo               1.5756136568        0.9097075315       -3.0554901653    0   0   0
S                0.0000188998        1.8193822938       -4.6232556019    0   0   0
S                1.5756321638        0.9096773839       -7.6014065489    0   0   0
S                1.5756326175        0.9096785128      -10.7330757790    0   0   0
S                0.0000189190        1.8193860094       -1.4877129945    0   0   0
Mo               0.0001400044        1.8190874719        3.0575047485
Mo               1.5752235258        0.9113522123        9.2226593765
S                0.0087568828        1.8034309086        7.6387375169
S                1.5753963296        0.9091501923        4.6248668969
S                1.5757107047        0.9098257142        1.4892457726
S               -0.1293233611        1.8184634059       10.7847303559
Mo              -1.5756053507        4.5484193819       -9.1672481230    0   0   0
Mo               0.0000378379        3.6387394919       -3.0554952701    0   0   0
S               -1.5755913433        4.5484363582       -4.6232494962    0   0   0
S                0.0000148214        3.6387329039       -7.6014065489    0   0   0
S                0.0000152751        3.6387340328      -10.7330757790    0   0   0
S               -1.5755906502        4.5484413613       -1.4877305502    0   0   0
Mo              -1.5751025596        4.5481893570        3.0580836040
Mo              -0.0277641705        3.6320179852        9.1682713503
S               -1.5808295339        4.5579487961        7.6025387322
S                0.0002525196        3.6379055308        4.6268429128
S                0.0002953532        3.6386477854        1.4902887869
S               -1.6201907345        4.5717934746       10.7618879010
Mo              -3.1512226931        7.2774749019       -9.1672481230    0   0   0
Mo              -1.5755910988        6.3678216792       -3.0555115988    0   0   0
S               -3.1512162438        7.2774954350       -4.6232578178    0   0   0
S               -1.5756025210        6.3677884239       -7.6014065489    0   0   0
S               -1.5756020673        6.3677895528      -10.7330757790    0   0   0
S               -3.1512127704        7.2774877076       -1.4877200710    0   0   0
Mo              -3.1510410967        7.2774039106        3.0577191955
Mo              -1.6006498338        6.3734032847        9.1760557670
S               -3.1549574146        7.2877426918        7.5928625582
S               -1.5751172753        6.3679031921        4.6258074318
S               -1.5754429988        6.3673538445        1.4900619885
S               -3.1734627189        7.2740322318       10.7427084820
Mo              -4.7268400355       10.0065304219       -9.1672481230    0   0   0
Mo              -3.1512405618        9.0968403586       -3.0554816746    0   0   0
S               -4.7268341792       10.0065523623       -4.6232463762    0   0   0
S               -3.1512198634        9.0968439439       -7.6014065489    0   0   0
S               -3.1512194097        9.0968450728      -10.7330757790    0   0   0
S               -4.7268370797       10.0065537885       -1.4877176751    0   0   0
Mo              -4.7268039591       10.0065107275        3.0566251622
Mo              -3.1489098030        9.0926207493        9.1777404025
S               -4.7308858183       10.0311259907        7.6441976577
S               -3.1519653524        9.0971480221        4.6253002489
S               -3.1508822456        9.0964391621        1.4895495175
S               -4.7239181473        9.9327580507       10.8006283984
Mo               3.1512517547        1.8193638619       -9.1672481230    0   0   0
Mo               4.7269020221        0.9097289540       -3.0554823951    0   0   0
S                3.1512612351        1.8193882564       -4.6232320683    0   0   0
S                4.7268719268        0.9096773839       -7.6014065489    0   0   0
S                4.7268723805        0.9096785128      -10.7330757790    0   0   0
S                3.1512592485        1.8193890201       -1.4877261251    0   0   0
Mo               3.1512247734        1.8189794648        3.0575907871
Mo               4.7463672785        0.9010237735        9.1510497311
S                3.1369971192        1.7938114716        7.6157571852
S                4.7270538633        0.9093812541        4.6252114789
S                4.7267628390        0.9091201886        1.4896800412
S                3.2640803879        1.8547000233       10.7651652223
[...]
Mo               4.7268792535       10.0065304219       -9.1672481230    0   0   0
Mo               6.3025111524        9.0968738021       -3.0554915260    0   0   0
S                4.7268840634       10.0065452125       -4.6232380477    0   0   0
S                6.3024994256        9.0968439439       -7.6014065489    0   0   0
S                6.3024998793        9.0968450728      -10.7330757790    0   0   0
S                4.7268847312       10.0065459141       -1.4877283294    0   0   0
Mo               4.7270008973       10.0060774758        3.0577119553
Mo               6.2947390131        9.0923873574        9.1827856849
S                4.7207419404        9.9895813463        7.5943119995
S                6.3033157516        9.0970789140        4.6251571314
S                6.3023603718        9.0965668119        1.4893635162
S                4.7198086800       10.0102432192       10.7449789882
Pt               1.5051997685        6.2312635228       12.0360146091
Pd               0.1312993357        3.6911035052       12.2971169185
Pd               1.5519404568        1.0279602189       12.1131060840
End final coordinates

     Writing all to output data dir ./outdir/pwscf.save/ :
     XML data file, charge density, pseudopotentials, collected wavefunctions

     General routines

     Parallel routines

   This run was terminated on:  17:56:50   1May2024

   JOB DONE.