     Program PWSCF v.7.3 starts on 30Mar2024 at 20:39: 1

     Waiting for input...
     Reading input from standard input
Warning: card &CELL ignored
Warning: card / ignored

     Current dimensions of program PWSCF are:
     Max number of different atomic species (ntypx) = 10
     Max number of k-points (npk) =  40000
     Max angular momentum in pseudopotentials (lmaxx) =  4
     file Mo.pbe-spn-kjpaw_psl.1.0.0.UPF: wavefunction(s)  4S 4D renormalized
     file S.pbe-n-kjpaw_psl.1.0.0.UPF: wavefunction(s)  3S 3P renormalized
     file Pt.pbe-spfn-kjpaw_psl.1.0.0.UPF: wavefunction(s)  5P 4F renormalized
     file Pd.pbe-spn-kjpaw_psl.1.0.0.UPF: wavefunction(s)  4S 5S 4D renormalized

     R & G space division:  proc/nbgrp/npool/nimage =      36
     Subspace diagonalization in iterative solution of the eigenvalue problem:
     one sub-group per band group will be used

     Using Slab Decomposition

     bravais-lattice index     =            0
     lattice parameter (alat)  =      23.8395  a.u.
     unit-cell volume          =   28182.8498 (a.u.)^3
     number of atoms/cell      =          147
     number of atomic types    =            4
     number of electrons       =      1330.00
     number of Kohn-Sham states=          798
     kinetic-energy cutoff     =      77.0000  Ry
     charge density cutoff     =     539.0000  Ry
     scf convergence threshold =      1.0E-06
     mixing beta               =       0.2000
     number of iterations used =            8  plain     mixing
     energy convergence thresh.=      1.0E-04
     force convergence thresh. =      1.0E-03
     Exchange-correlation= SLA  PW   PBX  PBC
                           (   1   4   3   4   0   0   0)
     nstep                     =         1000

     Effective Screening Medium Method
     Boundary Conditions: Vacuum-Slab-Vacuum
     total charge in unit cell        =   0.0000
     grid points for fit at edges     =        4

     celldm(1)=  23.839504  celldm(2)=   0.000000  celldm(3)=   0.000000
     celldm(4)=   0.000000  celldm(5)=   0.000000  celldm(6)=   0.000000

     crystal axes: (cart. coord. in units of alat)
               a(1) = (   1.000000   0.000000   0.000000 )
               a(2) = (  -0.500001   0.866026   0.000000 )
               a(3) = (   0.000000   0.000000   2.401941 )

     reciprocal axes: (cart. coord. in units 2 pi/alat)
               b(1) = (  1.000000  0.577351  0.000000 )
               b(2) = (  0.000000  1.154700  0.000000 )
               b(3) = (  0.000000  0.000000  0.416330 )

     PseudoPot. # 1 for Mo read from file:
     ./pseudo/Mo.pbe-spn-kjpaw_psl.1.0.0.UPF
     MD5 check sum: 317bf72632116215fd98f72de1686f13
     Pseudo is Projector augmented-wave + core cor, Zval = 14.0
     Generated using 'atomic' code by A. Dal Corso  v.7.2
     Shape of augmentation charge: PSQ
     Using radial grid of 1229 points,  6 beta functions with:
                l(1) =   0
                l(2) =   0
                l(3) =   1
                l(4) =   1
                l(5) =   2
                l(6) =   2
     Q(r) pseudized with 0 coefficients

     PseudoPot. # 2 for S  read from file:
     ./pseudo/S.pbe-n-kjpaw_psl.1.0.0.UPF
     MD5 check sum: 8b7b5302570d38d5e87fed6a1065abda
     Pseudo is Projector augmented-wave + core cor, Zval =  6.0
     Generated using 'atomic' code by A. Dal Corso  v.7.2
     Shape of augmentation charge: PSQ
     Using radial grid of 1151 points,  6 beta functions with:
                l(1) =   0
                l(2) =   0
                l(3) =   1
                l(4) =   1
                l(5) =   2
                l(6) =   2
     Q(r) pseudized with 0 coefficients

     PseudoPot. # 3 for Pt read from file:
     ./pseudo/Pt.pbe-spfn-kjpaw_psl.1.0.0.UPF
     MD5 check sum: 620096ebf4e6ebacc94de60fd67efcb5
     Pseudo is Projector augmented-wave + core cor, Zval = 32.0
     Generated using 'atomic' code by A. Dal Corso  v.7.2
     Shape of augmentation charge: PSQ
     Using radial grid of 1277 points,  8 beta functions with:
                l(1) =   0
                l(2) =   0
                l(3) =   1
                l(4) =   1
                l(5) =   2
                l(6) =   2
                l(7) =   3
                l(8) =   3
     Q(r) pseudized with 0 coefficients

     PseudoPot. # 4 for Pd read from file:
     ./pseudo/Pd.pbe-spn-kjpaw_psl.1.0.0.UPF
     MD5 check sum: a60571a671f2502b8a6a4569d20a6edb
     Pseudo is Projector augmented-wave + core cor, Zval = 18.0
     Generated using 'atomic' code by A. Dal Corso  v.7.2
     Shape of augmentation charge: PSQ
     Using radial grid of 1235 points,  6 beta functions with:
                l(1) =   0
                l(2) =   0
                l(3) =   1
                l(4) =   1
                l(5) =   2
                l(6) =   2
     Q(r) pseudized with 0 coefficients

     atomic species   valence    mass     pseudopotential
     Mo               14.00    95.95000     Mo( 1.00)
     S                 6.00    32.06000     S ( 1.00)
     Pt               32.00   195.08400     Pt( 1.00)
     Pd               18.00   106.42000     Pd( 1.00)

     No symmetry found

   Cartesian axes

     site n.     atom                  positions (alat units)
         1        Mo     tau(   1) = (   0.1246074   0.2157200   0.4826345  )
         2        Mo     tau(   2) = (   0.1250004   0.0721694  -0.4825273  )
         3        Mo     tau(   3) = (   0.0000068   0.1443549  -0.0000406  )
         4        S      tau(   4) = (   0.0000004   0.0000006  -0.6064556  )
         5        S      tau(   5) = (   0.1249873   0.0722031  -0.1241756  )
         6        S      tau(   6) = (   0.0000973   0.1450650   0.3573519  )
         7        S      tau(   7) = (   0.0000004   0.0000005  -0.3584711  )
         8        S      tau(   8) = (   0.1249847   0.0720950   0.1240801  )
         9        S      tau(   9) = (  -0.0005301   0.1434694   0.6062599  )
        10        Mo     tau(  10) = (  -0.0009156   0.4330317   0.4832560  )
        11        Mo     tau(  11) = (   0.0000001   0.2886759  -0.4825273  )
        12        Mo     tau(  12) = (  -0.1249829   0.3608507   0.0000027  )
        13        S      tau(  13) = (  -0.1249999   0.2165071  -0.6064556  )
        14        S      tau(  14) = (   0.0000128   0.2886930  -0.1241006  )
        15        S      tau(  15) = (  -0.1248837   0.3612581   0.3580377  )
        16        S      tau(  16) = (  -0.1249998   0.2165070  -0.3584711  )
        17        S      tau(  17) = (   0.0000764   0.2887257   0.1242499  )
        18        S      tau(  18) = (  -0.1253220   0.3603286   0.6073134  )
        19        Mo     tau(  19) = (  -0.1249684   0.6493789   0.4818062  )
        20        Mo     tau(  20) = (  -0.1250002   0.5051824  -0.4825273  )
        21        Mo     tau(  21) = (  -0.2500040   0.5773207  -0.0001409  )
        22        S      tau(  22) = (  -0.2500002   0.4330136  -0.6064556  )
        23        S      tau(  23) = (  -0.1249903   0.5051158  -0.1241917  )
        24        S      tau(  24) = (  -0.2499555   0.5769406   0.3578597  )
        25        S      tau(  25) = (  -0.2500001   0.4330135  -0.3584711  )
        26        S      tau(  26) = (  -0.1249930   0.5052458   0.1241101  )
        27        S      tau(  27) = (  -0.2497899   0.5778453   0.6063597  )
        28        Mo     tau(  28) = (   0.2497834  -0.0005160   0.4806710  )
        29        Mo     tau(  29) = (  -0.2500004   0.7216889  -0.4825273  )
        30        Mo     tau(  30) = (  -0.3750188   0.7938286  -0.0001549  )
        31        S      tau(  31) = (  -0.3750004   0.6495201  -0.6064556  )
        32        S      tau(  32) = (  -0.2500074   0.7216649  -0.1242513  )
        33        S      tau(  33) = (  -0.3752234   0.7935039   0.3566636  )
        34        S      tau(  34) = (  -0.3750004   0.6495200  -0.3584711  )
        35        S      tau(  35) = (  -0.2499996   0.7216607   0.1240200  )
        36        S      tau(  36) = (  -0.3746819   0.7948899   0.6057341  )
        37        Mo     tau(  37) = (   0.3750034   0.2123618   0.4807886  )
        38        Mo     tau(  38) = (   0.3750004   0.0721694  -0.4825273  )
        39        Mo     tau(  39) = (   0.2499981   0.1443415  -0.0000413  )
        40        S      tau(  40) = (   0.2500004   0.0000006  -0.6064556  )
        41        S      tau(  41) = (   0.3750280   0.0722231  -0.1241519  )
        42        S      tau(  42) = (   0.2489233   0.1437373   0.3564531  )
        43        S      tau(  43) = (   0.2500004   0.0000005  -0.3584711  )
        44        S      tau(  44) = (   0.3749877   0.0720947   0.1241383  )
        45        S      tau(  45) = (   0.2497122   0.1423104   0.6055821  )
        46        Mo     tau(  46) = (   0.2490774   0.4329018   0.4862977  )
        47        Mo     tau(  47) = (   0.2500001   0.2886759  -0.4825273  )
        48        Mo     tau(  48) = (   0.1250319   0.3608540  -0.0000126  )
        49        S      tau(  49) = (   0.1250001   0.2165071  -0.6064556  )
        50        S      tau(  50) = (   0.2500259   0.2886851  -0.1240979  )
        51        S      tau(  51) = (   0.1263042   0.3620125   0.3614359  )
        52        S      tau(  52) = (   0.1250002   0.2165070  -0.3584711  )
        53        S      tau(  53) = (   0.2500168   0.2886898   0.1242904  )
        54        S      tau(  54) = (   0.1173694   0.3566575   0.6132890  )
        55        Mo     tau(  55) = (   0.1240062   0.6506471   0.4823696  )
        56        Mo     tau(  56) = (   0.1249998   0.5051824  -0.4825273  )
        57        Mo     tau(  57) = (   0.0000191   0.5773226  -0.0001255  )
        58        S      tau(  58) = (  -0.0000002   0.4330136  -0.6064556  )
        59        S      tau(  59) = (   0.1250359   0.5051398  -0.1241676  )
        60        S      tau(  60) = (   0.0000697   0.5768181   0.3580317  )
[...]
       133        S      tau( 133) = (   0.4999999   0.4330135  -0.3584711  )
       134        S      tau( 134) = (   0.6250095   0.5052263   0.1241915  )
       135        S      tau( 135) = (   0.5006407   0.5846211   0.6091832  )
       136        Mo     tau( 136) = (   0.0000410   0.0004185   0.4809769  )
       137        Mo     tau( 137) = (   0.4999996   0.7216889  -0.4825273  )
       138        Mo     tau( 138) = (   0.3750036   0.7938273  -0.0000272  )
       139        S      tau( 139) = (   0.3749996   0.6495201  -0.6064556  )
       140        S      tau( 140) = (   0.4999499   0.7216482  -0.1241729  )
       141        S      tau( 141) = (   0.3750006   0.7941054   0.3569117  )
       142        S      tau( 142) = (   0.3749996   0.6495200  -0.3584711  )
       143        S      tau( 143) = (   0.5000314   0.7216102   0.1241515  )
       144        S      tau( 144) = (   0.3752329   0.7966920   0.6062052  )
       145        Pt     tau( 145) = (   0.2580795   0.4348292   0.7095693  )
       146        Pd     tau( 146) = (   0.4899479   0.4358638   0.7204770  )
       147        Pt     tau( 147) = (   0.1246104   0.2156901   0.7242780  )

     DFT-D3 Dispersion Correction (3-body terms):
       Reference C6 values for interpolation:

[...]
   -40.6830 -40.6763 -40.6737 -40.6682 -40.6674 -40.6670 -40.6545 -40.6505
   -40.6504 -40.6502 -40.6331 -40.6240 -40.6199 -40.6198 -40.6169 -40.6094
   -40.6008 -40.5983 -40.5919 -40.5800 -40.5761 -40.5640 -40.5590 -40.5510
   -40.5326 -40.4977 -20.2263 -19.9640 -19.9389 -19.9004 -19.7834 -19.7621
   -19.5762 -19.5501 -19.5007 -19.4940 -19.3688 -19.3508 -19.2977 -19.0351
   -18.8647 -18.8286 -18.8256 -18.8137 -18.8028 -18.8015 -18.7919 -18.7822
   -18.7083 -18.6912 -18.6813 -18.6705 -18.6658 -18.6626 -18.6270 -18.6122
   -18.5748 -18.5580 -18.5516 -18.5206 -18.5156 -18.5001 -18.4824 -18.4675
   -18.4485 -18.4304 -18.3973 -18.3825 -18.3463 -18.3301 -18.3057 -18.2896
   -18.2700 -18.2560 -18.2228 -18.2097 -18.2011 -18.1933 -18.1930 -18.1929
   -18.1928 -18.1822 -18.1583 -18.1542 -18.1243 -18.1210 -18.1173 -18.1124
   -18.1119 -18.0984 -18.0871 -18.0821 -18.0658 -18.0566 -18.0545 -18.0397
   -18.0154 -18.0130 -18.0108 -18.0060 -17.9954 -17.9896 -17.9584 -17.9481
   -17.9395 -17.9316 -17.9296 -17.9296 -17.9008 -17.8886 -17.8758 -17.8702
   -17.8698 -17.8593 -17.8541 -17.8539 -17.8521 -17.8451 -17.8119 -17.8093
   -17.7613 -17.7441 -12.3046 -12.1452 -11.9999 -11.8202 -11.7473 -11.6902
   -11.6237 -11.5764 -11.5450 -11.5392 -11.5376 -11.5333 -11.5284 -11.5097
   -11.5005 -11.4644 -11.4526 -11.4428 -11.4387 -11.4194 -11.4030 -11.3786
   -11.3621 -11.3486 -11.3393 -11.3289 -11.3225 -11.3225 -11.2805 -11.2780
   -11.2714 -11.2601 -11.2363 -11.2224 -11.2172 -11.2056 -11.1823 -11.1091
   -11.0926 -11.0783 -11.0585 -11.0390 -11.0228 -10.9982 -10.9908 -10.9821
   -10.9795 -10.9722 -10.9489 -10.9410 -10.9244 -10.9129 -10.8979 -10.8965
   -10.8954 -10.8953 -10.8939 -10.8816 -10.8705 -10.8522 -10.8404 -10.8299
   -10.8245 -10.8200 -10.7927 -10.7018 -10.6671 -10.6546 -10.5717 -10.5633
   -10.5529 -10.5099 -10.4485 -10.3979 -10.3742 -10.2862 -10.2645 -10.2446
   -10.2058 -10.1774 -10.1703 -10.1690 -10.1338 -10.1082 -10.0740 -10.0647
   -10.0436 -10.0323 -10.0068 -10.0026  -9.9990  -9.9946  -9.9816  -9.9741
    -9.9633  -9.9538  -9.9459  -9.9360  -9.8905  -9.8742  -9.8653  -9.8401
    -9.8322  -9.8148  -9.7963  -9.7837  -9.7812  -9.7718  -9.7647  -9.7627
    -9.7380  -9.7338  -9.7277  -9.7225  -9.7106  -9.6802  -9.6714  -9.6444
    -9.6217  -9.6123  -9.6036  -9.5942  -9.5839  -9.5396  -9.5378  -9.5141
    -9.4511  -9.4409  -9.4372  -9.4028  -9.3778  -9.3585  -9.2805  -9.2750
    -9.2631  -9.2500  -9.2306  -9.2193  -9.2172  -9.2057  -9.1949  -9.1869
    -9.1736  -9.1654  -9.1452  -9.1268  -9.1110  -9.1058  -9.1000  -9.0915
    -9.0734  -9.0595  -9.0486  -9.0438  -9.0276  -9.0198  -9.0176  -9.0076
    -9.0004  -8.9977  -8.9876  -8.9744  -8.9576  -8.9499  -8.9405  -8.9297
[...]
    -3.8322  -3.7814  -3.7804  -3.7056  -3.6791  -3.6726  -3.6626  -3.6600
    -3.6556  -3.6451  -3.6448  -3.6379  -3.6229  -3.5867  -3.5807  -3.5709
    -3.5630  -3.5548  -3.5496  -3.5479  -3.5399  -3.5307  -3.5258  -3.5009
    -3.4899  -3.4663  -3.4489  -3.4423  -3.4283  -3.4137  -3.4123  -3.4077
    -3.3924  -3.3816  -3.3804  -3.3694  -3.3665  -3.3523  -3.3366  -3.3358
    -3.3354  -3.3346  -3.3266  -3.3054  -3.3045  -3.2919  -3.2873  -3.2794
    -3.2694  -3.2661  -3.2570  -3.2460  -3.2401  -3.2273  -3.2156  -3.1903
    -3.1850  -3.1730  -3.1572  -3.1323  -3.1295  -3.1174  -3.1010  -3.0916
    -3.0911  -3.0739  -3.0736  -3.0725  -3.0719  -3.0426  -3.0336  -3.0265
    -3.0249  -3.0227  -3.0126  -3.0035  -2.9935  -2.9874  -2.9813  -2.9736
    -2.9669  -2.9625  -2.9572  -2.9477  -2.9310  -2.9207  -2.9115  -2.8981
    -2.8864  -2.8715  -2.8689  -2.8637  -2.8210  -2.8151  -2.8037  -2.7789
    -2.7741  -2.7324  -2.7166  -2.7109  -2.7094  -2.7004  -2.6966  -2.6350
    -2.6261  -2.6087  -2.5799  -2.5695  -2.5627  -2.5587  -2.5339  -2.5073
    -2.4359  -2.4292  -2.4236  -2.3885  -2.3758  -2.3500

     the Fermi energy is    -4.7325 ev

!    total energy              =  -27706.45799379 Ry
     total all-electron energy =   -549111.720433 Ry
     estimated scf accuracy    <          3.7E-09 Ry
     smearing contrib. (-TS)   =      -0.00000007 Ry
     internal energy E=F+TS    =  -27706.45799372 Ry

     The total energy is F=E-TS. E is the sum of the following terms:
     one-electron contribution =  525076.53278972 Ry
     hartree contribution      = -262722.33900552 Ry
     xc contribution           =   -1610.30926099 Ry
     ewald contribution        = -271666.59776635 Ry
     DFT-D3 Dispersion         =      -4.06368014 Ry
     one-center paw contrib.   =  -16779.68107044 Ry

     convergence has been achieved in  11 iterations

     negative rho (up, down):  9.224E-04 0.000E+00

     Forces acting on atoms (cartesian axes, Ry/au):

     atom    1 type  1   force =    -0.00006242   -0.00012997    0.00026731
     atom    2 type  1   force =     0.00000222    0.00000264    0.00189822
     atom    3 type  1   force =     0.00001130    0.00001240   -0.00002007
     atom    4 type  2   force =     0.00000249    0.00000142   -0.00328002
     atom    5 type  2   force =     0.00000319    0.00001449   -0.00001796
     atom    6 type  2   force =    -0.00010177    0.00014988    0.00033807
     atom    7 type  2   force =     0.00000743    0.00000607    0.00149997
     atom    8 type  2   force =     0.00001489    0.00001604   -0.00001741
     atom    9 type  2   force =     0.00005755    0.00010602    0.00015479
     atom   10 type  1   force =     0.00010361   -0.00015608   -0.00016275
     atom   11 type  1   force =     0.00000369    0.00000127    0.00189555
     atom   12 type  1   force =     0.00001305    0.00001798   -0.00001579
     atom   13 type  2   force =     0.00000263    0.00000124   -0.00328002
     atom   14 type  2   force =     0.00001180    0.00001899   -0.00003131
     atom   15 type  2   force =    -0.00020434    0.00014878    0.00022723
     atom   16 type  2   force =     0.00001143    0.00000166    0.00150852
     atom   17 type  2   force =     0.00000265    0.00000056   -0.00004416
     atom   18 type  2   force =     0.00049841   -0.00005814   -0.00002395
     atom   19 type  1   force =     0.00012797    0.00003409    0.00012605
     atom   20 type  1   force =     0.00000338    0.00000129    0.00189638
     atom   21 type  1   force =     0.00001308    0.00000186    0.00002826
     atom   22 type  2   force =     0.00000267    0.00000144   -0.00328038
     atom   23 type  2   force =     0.00002442    0.00003280    0.00001136
     atom   24 type  2   force =     0.00048852   -0.00015151    0.00024604
     atom   25 type  2   force =     0.00000800    0.00000147    0.00149685
     atom   26 type  2   force =     0.00001242   -0.00000489    0.00003915
     atom   27 type  2   force =     0.00018458    0.00007680   -0.00004244
     atom   28 type  1   force =    -0.00009292    0.00006542    0.00000549
     atom   29 type  1   force =     0.00000319    0.00000116    0.00189698
     atom   30 type  1   force =     0.00000379    0.00000896   -0.00000242
     atom   31 type  2   force =     0.00000245    0.00000186   -0.00327994
     atom   32 type  2   force =     0.00002343   -0.00000433   -0.00000011
     atom   33 type  2   force =    -0.00001633   -0.00024268   -0.00021976
     atom   34 type  2   force =     0.00000335    0.00000340    0.00149466
     atom   35 type  2   force =    -0.00001341    0.00000058    0.00001991
     atom   36 type  2   force =    -0.00000596   -0.00019394   -0.00025598
     atom   37 type  1   force =    -0.00026436    0.00020523   -0.00009793
     atom   38 type  1   force =     0.00000084    0.00000177    0.00189931
     atom   39 type  1   force =     0.00000203    0.00001287   -0.00000896
     atom   40 type  2   force =     0.00000297    0.00000139   -0.00328033
     atom   41 type  2   force =    -0.00000020   -0.00000074   -0.00000401
     atom   42 type  2   force =     0.00006880   -0.00013174   -0.00006376
     atom   43 type  2   force =     0.00000215    0.00000348    0.00150415
     atom   44 type  2   force =    -0.00001444    0.00001707   -0.00000175
     atom   45 type  2   force =    -0.00042686    0.00006631    0.00009848
     atom   46 type  1   force =    -0.00011648   -0.00024743   -0.00014133
     atom   47 type  1   force =     0.00000010    0.00000101    0.00189550
     atom   48 type  1   force =     0.00001332   -0.00000626   -0.00000888
     atom   49 type  2   force =     0.00000269    0.00000150   -0.00328083
     atom   50 type  2   force =     0.00000195   -0.00000308   -0.00002543
     atom   51 type  2   force =    -0.00019746    0.00080891   -0.00043581
     atom   52 type  2   force =    -0.00000156    0.00000389    0.00150832
     atom   53 type  2   force =     0.00002079   -0.00000090   -0.00001125
     atom   54 type  2   force =    -0.00049671   -0.00061515   -0.00022586
     atom   55 type  1   force =     0.00010068    0.00011987    0.00011350
     atom   56 type  1   force =     0.00000222    0.00000017    0.00189712
     atom   57 type  1   force =     0.00001281   -0.00002572    0.00003843
     atom   58 type  2   force =     0.00000271    0.00000182   -0.00328054
     atom   59 type  2   force =    -0.00001997   -0.00000795    0.00001178
     atom   60 type  2   force =     0.00004922    0.00000797    0.00039163
[...]
     atom  133 type  2   force =     0.00000356   -0.00000039    0.00150018
     atom  134 type  2   force =     0.00000669    0.00000184    0.00002380
     atom  135 type  2   force =     0.00000640    0.00008635   -0.00003361
     atom  136 type  1   force =     0.00002273    0.00006165    0.00001208
     atom  137 type  1   force =     0.00000252    0.00000106    0.00189849
     atom  138 type  1   force =     0.00001573    0.00001930   -0.00002768
     atom  139 type  2   force =     0.00000272    0.00000192   -0.00328010
     atom  140 type  2   force =    -0.00000112   -0.00000292   -0.00001732
     atom  141 type  2   force =    -0.00001832   -0.00014772   -0.00011389
     atom  142 type  2   force =     0.00000830   -0.00000533    0.00149098
     atom  143 type  2   force =    -0.00001266    0.00001455   -0.00000974
     atom  144 type  2   force =    -0.00014233   -0.00003743   -0.00022618
     atom  145 type  3   force =     0.00062702   -0.00022136    0.00018808
     atom  146 type  4   force =    -0.00002496    0.00002715    0.00025510
     atom  147 type  3   force =    -0.00097302   -0.00040773   -0.00062049

     Total force =     0.002855     Total SCF correction =     0.000365
     SCF correction compared to forces is large: reduce conv_thr to get better values
     Energy error            =      1.5E-05 Ry
     Gradient error          =      9.7E-04 Ry/Bohr

     bfgs converged in  22 scf cycles and  21 bfgs steps
     (criteria: energy <  1.0E-04 Ry, force <  1.0E-03 Ry/Bohr)

     End of BFGS Geometry Optimization

     Final energy             =  -27706.4579937855 Ry

     File ./outdir/pwscf.bfgs deleted, as requested
Begin final coordinates

ATOMIC_POSITIONS (angstrom)
Mo               1.5767657692        2.7294719462        6.1243538932
Mo               1.5769197498        0.9104407117       -6.0872367793    0   0   0
Mo               0.0002293466        1.8209098687       -0.0000926889
S                0.0000044503        0.0000077495       -7.6506323570    0   0   0
S                1.5770844508        0.9106894055       -1.5656871816
S                0.0186727177        1.8319436444        4.5645357654
S                0.0000053241        0.0000068460       -4.5222282367    0   0   0
S                1.5764583361        0.9098532716        1.5669224969
S               -0.0654253594        1.7777037519        7.7507800765
Mo              -0.0467256705        5.4901536419        6.0631866523
Mo               0.0000011799        3.6417399547       -6.0872367793    0   0   0
Mo              -1.5770423260        4.5519086459        0.0001817532
S               -1.5769141197        2.7313069925       -7.6506323570    0   0   0
S                0.0002292226        3.6419223796       -1.5649717961
S               -1.5965488352        4.5421853803        4.5050296844
S               -1.5769132459        2.7313060890       -4.5222282367    0   0   0
S               -0.0001842967        3.6413893690        1.5681915493
S               -1.5885799090        4.5671330040        7.6534305297
Mo              -1.5787352209        8.2004526776        6.0548332431
Mo              -1.5769173901        6.3730391977       -6.0872367793    0   0   0
Mo              -3.1538655891        7.2832645303       -0.0009815986
S               -3.1538326896        5.4626062355       -7.6506323570    0   0   0
S               -1.5765078672        6.3725609318       -1.5656817884
S               -3.1649462577        7.2818050124        4.5017415007
S               -3.1538318159        5.4626053320       -4.5222282367    0   0   0
S               -1.5772138016        6.3731764542        1.5666446397
S               -3.1491307894        7.2925929248        7.6367708779
Mo               3.1582972528       -0.0224252035        6.0674931455
Mo              -3.1538359601        9.1043384407       -6.0872367793    0   0   0
Mo              -4.7309037133       10.0145678159       -0.0008695078
S               -4.7307512596        8.1939054785       -7.6506323570    0   0   0
S               -3.1537265426        9.1043519266       -1.5662932991
S               -4.7448707728       10.0182380529        4.5100147633
S               -4.7307503859        8.1939045750       -4.5222282367    0   0   0
S               -3.1540546114        9.1041815256        1.5659843123
S               -4.7160915173       10.0160110862        7.6548354657
Mo               4.7555158647        2.6816089618        6.0624552383
Mo               4.7307503218        0.9104407117       -6.0872367793    0   0   0
Mo               3.1535767072        1.8211244886        0.0003651121
S                3.1538350223        0.0000077495       -7.6506323570    0   0   0
S                4.7304618576        0.9108747982       -1.5655837283
S                3.1286684540        1.8195270418        4.5331172651
S                3.1538358961        0.0000068460       -4.5222282367    0   0   0
S                4.7306656566        0.9108589794        1.5670108419
S                3.2568105461        1.7363578120        7.6863193557
Mo               3.1460550698        5.4902726250        6.0781612825
Mo               3.1538317519        3.6417399547       -6.0872367793    0   0   0
Mo               1.5769976527        4.5519608328        0.0009398738
S                1.5769164523        2.7313069925       -7.6506323570    0   0   0
S                3.1533180354        3.6416912071       -1.5650548660
S                1.5710817961        4.5392346222        4.5550468322
S                1.5769173261        2.7313060890       -4.5222282367    0   0   0
S                3.1543102243        3.6420257601        1.5685360265
S                1.4828174335        4.6825682671        7.6694826269
Mo               1.5783614616        8.2006384499        6.0796872891
Mo               1.5769131819        6.3730391977       -6.0872367793    0   0   0
Mo               0.0003356092        7.2833313090       -0.0001355389
S               -0.0000021176        5.4626062355       -7.6506323570    0   0   0
S                1.5770385261        6.3724139045       -1.5651940715
S                0.0013340138        7.2983202442        4.4881750737
[...]
S                6.3076599001        5.4626053320       -4.5222282367    0   0   0
S                7.8839674172        6.3727261146        1.5657382116
S                6.3137480094        7.3533776741        7.6800759041
Mo               0.0006997170       -0.0023345308        6.1042887073
Mo               6.3076557559        9.1043384407       -6.0872367793    0   0   0
Mo               4.7313009184       10.0146966880       -0.0006420962
S                4.7307404564        8.1939054785       -7.6506323570    0   0   0
S                6.3077345621        9.1042812288       -1.5665747295
S                4.7413515204       10.0256158737        4.5216233721
S                4.7307413301        8.1939045750       -4.5222282367    0   0   0
S                6.3078307895        9.1031310146        1.5661333511
S                4.7230390208       10.0272432575        7.6689776946
Pt               3.1998541079        5.2832256637        9.0956434260
Pd               6.1038102236        5.4444189416        9.0956318652
Pt               1.6838635770        2.8576333241        8.9600165982
End final coordinates

     Writing all to output data dir ./outdir/pwscf.save/ :
     XML data file, charge density, pseudopotentials, collected wavefunctions

     General routines

     Parallel routines

   This run was terminated on:   3:28:28   1Apr2024

   JOB DONE.