     Program PWSCF v.7.2 starts on 18Dec2023 at 13:32:32

     Waiting for input...
     Reading input from standard input
Warning: card &CELL ignored
Warning: card / ignored

     Current dimensions of program PWSCF are:
     Max number of different atomic species (ntypx) = 10
     Max number of k-points (npk) =  40000
     Max angular momentum in pseudopotentials (lmaxx) =  4
     file Mo.pbe-spn-kjpaw_psl.1.0.0.UPF: wavefunction(s)  4S 4D renormalized
     file S.pbe-n-kjpaw_psl.1.0.0.UPF: wavefunction(s)  3S 3P renormalized
     file Pt.pbe-spfn-kjpaw_psl.1.0.0.UPF: wavefunction(s)  5P 4F renormalized
     file H.pbe-kjpaw_psl.1.0.0.UPF: wavefunction(s)  1S renormalized

     R & G space division:  proc/nbgrp/npool/nimage =      36
     Subspace diagonalization in iterative solution of the eigenvalue problem:
     one sub-group per band group will be used

     Using Slab Decomposition

     bravais-lattice index     =            0
     lattice parameter (alat)  =      23.8395  a.u.
     unit-cell volume          =   28182.8498 (a.u.)^3
     number of atoms/cell      =          146
     number of atomic types    =            4
     number of electrons       =      1281.00
     number of Kohn-Sham states=          769
     kinetic-energy cutoff     =      77.0000  Ry
     charge density cutoff     =     539.0000  Ry
     scf convergence threshold =      1.0E-06
     mixing beta               =       0.2000
     number of iterations used =            8  plain     mixing
     energy convergence thresh.=      1.0E-04
     force convergence thresh. =      1.0E-03
     Exchange-correlation= SLA  PW   PBX  PBC
                           (   1   4   3   4   0   0   0)
     nstep                     =         1000

     Effective Screening Medium Method
     Boundary Conditions: Vacuum-Slab-Vacuum
     total charge in unit cell        =   0.0000
     grid points for fit at edges     =        4

     celldm(1)=  23.839504  celldm(2)=   0.000000  celldm(3)=   0.000000
     celldm(4)=   0.000000  celldm(5)=   0.000000  celldm(6)=   0.000000

     crystal axes: (cart. coord. in units of alat)
               a(1) = (   1.000000   0.000000   0.000000 )
               a(2) = (  -0.500001   0.866026   0.000000 )
               a(3) = (   0.000000   0.000000   2.401941 )

     reciprocal axes: (cart. coord. in units 2 pi/alat)
               b(1) = (  1.000000  0.577351  0.000000 )
               b(2) = (  0.000000  1.154700  0.000000 )
               b(3) = (  0.000000  0.000000  0.416330 )

     PseudoPot. # 1 for Mo read from file:
     ./pseudo/Mo.pbe-spn-kjpaw_psl.1.0.0.UPF
     MD5 check sum: 317bf72632116215fd98f72de1686f13
     Pseudo is Projector augmented-wave + core cor, Zval = 14.0
     Generated using 'atomic' code by A. Dal Corso  v.7.2
     Shape of augmentation charge: PSQ
     Using radial grid of 1229 points,  6 beta functions with:
                l(1) =   0
                l(2) =   0
                l(3) =   1
                l(4) =   1
                l(5) =   2
                l(6) =   2
     Q(r) pseudized with 0 coefficients

     PseudoPot. # 2 for S  read from file:
     ./pseudo/S.pbe-n-kjpaw_psl.1.0.0.UPF
     MD5 check sum: 8b7b5302570d38d5e87fed6a1065abda
     Pseudo is Projector augmented-wave + core cor, Zval =  6.0
     Generated using 'atomic' code by A. Dal Corso  v.7.2
     Shape of augmentation charge: PSQ
     Using radial grid of 1151 points,  6 beta functions with:
                l(1) =   0
                l(2) =   0
                l(3) =   1
                l(4) =   1
                l(5) =   2
                l(6) =   2
     Q(r) pseudized with 0 coefficients

     PseudoPot. # 3 for Pt read from file:
     ./pseudo/Pt.pbe-spfn-kjpaw_psl.1.0.0.UPF
     MD5 check sum: 620096ebf4e6ebacc94de60fd67efcb5
     Pseudo is Projector augmented-wave + core cor, Zval = 32.0
     Generated using 'atomic' code by A. Dal Corso  v.7.2
     Shape of augmentation charge: PSQ
     Using radial grid of 1277 points,  8 beta functions with:
                l(1) =   0
                l(2) =   0
                l(3) =   1
                l(4) =   1
                l(5) =   2
                l(6) =   2
                l(7) =   3
                l(8) =   3
     Q(r) pseudized with 0 coefficients

     PseudoPot. # 4 for H  read from file:
     ./pseudo/H.pbe-kjpaw_psl.1.0.0.UPF
     MD5 check sum: b3cb3c48ee3b58cc53e4d592112d0ca6
     Pseudo is Projector augmented-wave, Zval =  1.0
     Generated using 'atomic' code by A. Dal Corso  v.7.2
     Shape of augmentation charge: PSQ
     Using radial grid of  929 points,  2 beta functions with:
                l(1) =   0
                l(2) =   0
     Q(r) pseudized with 0 coefficients

     atomic species   valence    mass     pseudopotential
        Mo            14.00    95.95000     Mo( 1.00)
        S              6.00    32.06000     S ( 1.00)
        Pt            32.00   195.08400     Pt( 1.00)
        H              1.00     1.00800     H ( 1.00)

     No symmetry found

   Cartesian axes

     site n.     atom                  positions (alat units)
         1           Mo  tau(   1) = (   0.1245066   0.2151403   0.4829270  )
         2           Mo  tau(   2) = (   0.1250004   0.0721694  -0.4825273  )
         3           Mo  tau(   3) = (   0.0000143   0.1443586  -0.0000404  )
         4           S   tau(   4) = (   0.0000004   0.0000006  -0.6064556  )
         5           S   tau(   5) = (   0.1249859   0.0722111  -0.1241825  )
         6           S   tau(   6) = (   0.0002990   0.1445714   0.3572522  )
         7           S   tau(   7) = (   0.0000004   0.0000005  -0.3584711  )
         8           S   tau(   8) = (   0.1250243   0.0721377   0.1241202  )
         9           S   tau(   9) = (  -0.0011552   0.1430195   0.6061730  )
        10           Mo  tau(  10) = (  -0.0014303   0.4332690   0.4829269  )
        11           Mo  tau(  11) = (   0.0000001   0.2886759  -0.4825273  )
        12           Mo  tau(  12) = (  -0.1249759   0.3608474  -0.0000404  )
        13           S   tau(  13) = (  -0.1249999   0.2165071  -0.6064556  )
        14           S   tau(  14) = (   0.0000250   0.2886908  -0.1241273  )
        15           S   tau(  15) = (  -0.1246483   0.3609863   0.3572522  )
        16           S   tau(  16) = (  -0.1249998   0.2165070  -0.3584711  )
        17           S   tau(  17) = (   0.0000923   0.2887297   0.1242244  )
        18           S   tau(  18) = (  -0.1267194   0.3605027   0.6061730  )
        19           Mo  tau(  19) = (  -0.1251617   0.6496109   0.4820319  )
        20           Mo  tau(  20) = (  -0.1250002   0.5051824  -0.4825273  )
        21           Mo  tau(  21) = (  -0.2500022   0.5773395  -0.0001503  )
        22           S   tau(  22) = (  -0.2500002   0.4330136  -0.6064556  )
        23           S   tau(  23) = (  -0.1249718   0.5051500  -0.1241823  )
        24           S   tau(  24) = (  -0.2500018   0.5776353   0.3574746  )
        25           S   tau(  25) = (  -0.2500001   0.4330135  -0.3584711  )
        26           S   tau(  26) = (  -0.1250162   0.5052198   0.1241203  )
        27           S   tau(  27) = (  -0.2500018   0.5771316   0.6060170  )
        28           Mo  tau(  28) = (   0.2499988  -0.0001852   0.4820322  )
        29           Mo  tau(  29) = (  -0.2500004   0.7216889  -0.4825273  )
        30           Mo  tau(  30) = (  -0.3750121   0.7938628  -0.0001504  )
        31           S   tau(  31) = (  -0.3750004   0.6495201  -0.6064556  )
        32           S   tau(  32) = (  -0.2500022   0.7216884  -0.1242395  )
        33           S   tau(  33) = (  -0.3747547   0.7937137   0.3574746  )
        34           S   tau(  34) = (  -0.3750004   0.6495200  -0.3584711  )
        35           S   tau(  35) = (  -0.2500023   0.7216883   0.1240244  )
        36           S   tau(  36) = (  -0.3751912   0.7939655   0.6060169  )
        37           Mo  tau(  37) = (   0.3754907   0.2151405   0.4829271  )
        38           Mo  tau(  38) = (   0.3750004   0.0721694  -0.4825273  )
        39           Mo  tau(  39) = (   0.2499984   0.1443573  -0.0000731  )
        40           S   tau(  40) = (   0.2500004   0.0000006  -0.6064556  )
        41           S   tau(  41) = (   0.3750112   0.0722112  -0.1241824  )
        42           S   tau(  42) = (   0.2499987   0.1444686   0.3583292  )
        43           S   tau(  43) = (   0.2500004   0.0000005  -0.3584711  )
        44           S   tau(  44) = (   0.3749727   0.0721378   0.1241202  )
        45           S   tau(  45) = (   0.2499989   0.1436262   0.6067914  )
        46           Mo  tau(  46) = (   0.2499982   0.4330120   0.4873213  )
        47           Mo  tau(  47) = (   0.2500001   0.2886759  -0.4825273  )
        48           Mo  tau(  48) = (   0.1250313   0.3608632  -0.0000369  )
        49           S   tau(  49) = (   0.1250001   0.2165071  -0.6064556  )
        50           S   tau(  50) = (   0.2499984   0.2886902  -0.1241509  )
        51           S   tau(  51) = (   0.1269276   0.3619573   0.3622727  )
        52           S   tau(  52) = (   0.1250002   0.2165070  -0.3584711  )
        53           S   tau(  53) = (   0.2499983   0.2886817   0.1242427  )
        54           S   tau(  54) = (   0.1143670   0.3547054   0.6129634  )
        55           Mo  tau(  55) = (   0.1240620   0.6506275   0.4829270  )
        56           Mo  tau(  56) = (   0.1249998   0.5051824  -0.4825273  )
        57           Mo  tau(  57) = (   0.0000150   0.5773409  -0.0000731  )
        58           S   tau(  58) = (  -0.0000002   0.4330136  -0.6064556  )
        59           S   tau(  59) = (   0.1250108   0.5051746  -0.1241509  )
        60           S   tau(  60) = (   0.0001121   0.5772840   0.3583290  )
[...]
       132           S   tau( 132) = (   0.4998845   0.5772841   0.3583289  )
       133           S   tau( 133) = (   0.4999999   0.4330135  -0.3584711  )
       134           S   tau( 134) = (   0.6250119   0.5052197   0.1241202  )
       135           S   tau( 135) = (   0.5006138   0.5777054   0.6067911  )
       136           Mo  tau( 136) = (  -0.0000756   0.0000425   0.4811258  )
       137           Mo  tau( 137) = (   0.4999996   0.7216889  -0.4825273  )
       138           Mo  tau( 138) = (   0.3749875   0.7938333  -0.0000404  )
       139           S   tau( 139) = (   0.3749996   0.6495201  -0.6064556  )
       140           S   tau( 140) = (   0.4999549   0.7216781  -0.1241825  )
       141           S   tau( 141) = (   0.3749453   0.7934797   0.3572516  )
       142           S   tau( 142) = (   0.3749996   0.6495200  -0.3584711  )
       143           S   tau( 143) = (   0.5000375   0.7216816   0.1241203  )
       144           S   tau( 144) = (   0.3755618   0.7955149   0.6061729  )
       145           Pt  tau( 145) = (   0.2499972   0.4330095   0.7045710  )
       146           H   tau( 146) = (   0.2500134   0.4330448   0.8313700  )

     DFT-D3 Dispersion Correction (3-body terms):
       Reference C6 values for interpolation:

         atom   Coordination number   C6
         H          0.912             6.05
         H          0.000            15.18
[...]
     atom   13 type  2   force =     0.00000000    0.00000000    0.00000000
     atom   14 type  2   force =     0.00001046    0.00000618    0.00000144
     atom   15 type  2   force =     0.00000260   -0.00000485    0.00000823
     atom   16 type  2   force =     0.00000000    0.00000000    0.00000000
     atom   17 type  2   force =    -0.00000169   -0.00000084   -0.00000339
     atom   18 type  2   force =    -0.00000866   -0.00000467    0.00001016
     atom   19 type  1   force =     0.00000653   -0.00000304    0.00004432
     atom   20 type  1   force =     0.00000000    0.00000000    0.00000000
     atom   21 type  1   force =     0.00000035   -0.00000189   -0.00000913
     atom   22 type  2   force =     0.00000000    0.00000000    0.00000000
     atom   23 type  2   force =     0.00000772    0.00000179    0.00000245
     atom   24 type  2   force =     0.00000009   -0.00000294    0.00000663
     atom   25 type  2   force =     0.00000000    0.00000000    0.00000000
     atom   26 type  2   force =     0.00000102    0.00000129    0.00000469
     atom   27 type  2   force =    -0.00000018   -0.00000397    0.00001702
     atom   28 type  1   force =     0.00000003    0.00000664    0.00004586
     atom   29 type  1   force =     0.00000000    0.00000000    0.00000000
     atom   30 type  1   force =    -0.00000262    0.00000142   -0.00000878
     atom   31 type  2   force =     0.00000000    0.00000000    0.00000000
     atom   32 type  2   force =     0.00000013   -0.00000025   -0.00000600
     atom   33 type  2   force =    -0.00000240    0.00000141    0.00000687
     atom   34 type  2   force =     0.00000000    0.00000000    0.00000000
     atom   35 type  2   force =     0.00000004   -0.00000004   -0.00000210
     atom   36 type  2   force =    -0.00000369    0.00000213    0.00001692
     atom   37 type  1   force =     0.00001938   -0.00003046    0.00001362
     atom   38 type  1   force =     0.00000000    0.00000000    0.00000000
     atom   39 type  1   force =    -0.00000029    0.00001181   -0.00000575
     atom   40 type  2   force =     0.00000000    0.00000000    0.00000000
     atom   41 type  2   force =    -0.00000567    0.00000561    0.00000218
     atom   42 type  2   force =    -0.00000021    0.00000479    0.00001202
     atom   43 type  2   force =     0.00000000    0.00000000    0.00000000
     atom   44 type  2   force =    -0.00000190    0.00000009    0.00000475
     atom   45 type  2   force =    -0.00000006   -0.00000944    0.00000702
     atom   46 type  1   force =    -0.00000059    0.00000013    0.00000065
     atom   47 type  1   force =     0.00000000    0.00000000    0.00000000
     atom   48 type  1   force =     0.00001070    0.00000655   -0.00000590
     atom   49 type  2   force =     0.00000000    0.00000000    0.00000000
     atom   50 type  2   force =    -0.00000029    0.00000323    0.00000765
     atom   51 type  2   force =    -0.00000832   -0.00000458    0.00001073
     atom   52 type  2   force =     0.00000000    0.00000000    0.00000000
     atom   53 type  2   force =    -0.00000024    0.00000329   -0.00000070
     atom   54 type  2   force =    -0.00000544   -0.00000342    0.00000007
     atom   55 type  1   force =    -0.00001644    0.00003176    0.00001238
     atom   56 type  1   force =     0.00000000    0.00000000    0.00000000
     atom   57 type  1   force =     0.00001019   -0.00000644   -0.00000651
     atom   58 type  2   force =     0.00000000    0.00000000    0.00000000
     atom   59 type  2   force =     0.00000266   -0.00000173    0.00000770
     atom   60 type  2   force =     0.00000429   -0.00000262    0.00001192
[...]
     atom  132 type  2   force =    -0.00000412   -0.00000229    0.00001192
     atom  133 type  2   force =     0.00000000    0.00000000    0.00000000
     atom  134 type  2   force =    -0.00000084    0.00000134    0.00000472
     atom  135 type  2   force =     0.00000814    0.00000507    0.00000708
     atom  136 type  1   force =    -0.00001686    0.00001033    0.00005764
     atom  137 type  1   force =     0.00000000    0.00000000    0.00000000
     atom  138 type  1   force =    -0.00000105   -0.00001432    0.00000025
     atom  139 type  2   force =     0.00000000    0.00000000    0.00000000
     atom  140 type  2   force =    -0.00000210   -0.00000761    0.00000216
     atom  141 type  2   force =    -0.00000542    0.00000042    0.00000831
     atom  142 type  2   force =     0.00000000    0.00000000    0.00000000
     atom  143 type  2   force =     0.00000107   -0.00000140    0.00000484
     atom  144 type  2   force =     0.00000050    0.00000991    0.00001089
     atom  145 type  3   force =     0.00000223   -0.00000115    0.00045272
     atom  146 type  4   force =     0.00000001   -0.00000002    0.00000440

     DFT-D3 dispersion contribution to forces:
     atom    1 type  1   force =     0.00017228    0.00029625   -0.00223461
     atom    2 type  1   force =     0.00000026   -0.00000018    0.00260399
     atom    3 type  1   force =    -0.00000747   -0.00000685   -0.00001727
     atom    4 type  2   force =     0.00000001   -0.00000000    0.00441141
     atom    5 type  2   force =     0.00000143   -0.00000123   -0.00004600
     atom    6 type  2   force =    -0.00000862    0.00000545   -0.00015025
     atom    7 type  2   force =     0.00000056   -0.00000032    0.00023542
     atom    8 type  2   force =    -0.00000440   -0.00001814    0.00009483
     atom    9 type  2   force =     0.00021333    0.00024814   -0.00430261
     atom   10 type  1   force =     0.00034270    0.00000108   -0.00223461
     atom   11 type  1   force =     0.00000028    0.00000016    0.00260359
     atom   12 type  1   force =    -0.00000966   -0.00000305   -0.00001728
     atom   13 type  2   force =     0.00000003    0.00000002    0.00441131
     atom   14 type  2   force =     0.00000026    0.00000015   -0.00004783
     atom   15 type  2   force =     0.00000041   -0.00001020   -0.00015025
     atom   16 type  2   force =     0.00000051    0.00000029    0.00023554
     atom   17 type  2   force =    -0.00001354   -0.00000782    0.00010033
     atom   18 type  2   force =     0.00032157    0.00006069   -0.00430261
     atom   19 type  1   force =     0.00010905   -0.00006295   -0.00254330
     atom   20 type  1   force =    -0.00000003    0.00000031    0.00260399
     atom   21 type  1   force =    -0.00000000    0.00000005   -0.00001199
     atom   22 type  2   force =     0.00000000    0.00000001    0.00441142
     atom   23 type  2   force =    -0.00000036    0.00000185   -0.00004600
     atom   24 type  2   force =     0.00000000    0.00000169   -0.00020246
     atom   25 type  2   force =    -0.00000000    0.00000064    0.00023541
     atom   26 type  2   force =    -0.00001791    0.00000526    0.00009483
     atom   27 type  2   force =    -0.00000000   -0.00003118   -0.00439592
     atom   28 type  1   force =    -0.00000000    0.00012591   -0.00254331
     atom   29 type  1   force =    -0.00000000   -0.00000000    0.00260437
     atom   30 type  1   force =     0.00000004   -0.00000002   -0.00001199
     atom   31 type  2   force =     0.00000004    0.00000002    0.00441156
     atom   32 type  2   force =     0.00000000    0.00000000   -0.00004521
     atom   33 type  2   force =     0.00000146   -0.00000083   -0.00020246
     atom   34 type  2   force =     0.00000013    0.00000008    0.00023584
     atom   35 type  2   force =    -0.00000000    0.00000001    0.00010129
     atom   36 type  2   force =    -0.00002701    0.00001559   -0.00439593
     atom   37 type  1   force =    -0.00017228    0.00029625   -0.00223460
     atom   38 type  1   force =    -0.00000026   -0.00000018    0.00260399
     atom   39 type  1   force =    -0.00000000   -0.00001279   -0.00003127
     atom   40 type  2   force =     0.00000000   -0.00000005    0.00441156
     atom   41 type  2   force =    -0.00000142   -0.00000123   -0.00004599
     atom   42 type  2   force =     0.00000001    0.00003998   -0.00010054
     atom   43 type  2   force =    -0.00000000   -0.00000015    0.00023584
     atom   44 type  2   force =     0.00000440   -0.00001814    0.00009483
     atom   45 type  2   force =     0.00000000    0.00058821   -0.00414924
     atom   46 type  1   force =     0.00000000    0.00000000   -0.00242454
     atom   47 type  1   force =    -0.00000000    0.00000002    0.00260395
     atom   48 type  1   force =    -0.00001002   -0.00000579   -0.00004897
     atom   49 type  2   force =    -0.00000000    0.00000001    0.00441132
     atom   50 type  2   force =     0.00000001   -0.00000125   -0.00005172
     atom   51 type  2   force =     0.00006040    0.00003488    0.00016224
     atom   52 type  2   force =     0.00000037    0.00000012    0.00023561
     atom   53 type  2   force =     0.00000000   -0.00001859    0.00008231
     atom   54 type  2   force =     0.00023760    0.00013719   -0.00423133
     atom   55 type  1   force =     0.00017042   -0.00029731   -0.00223459
     atom   56 type  1   force =     0.00000001   -0.00000001    0.00260395
     atom   57 type  1   force =    -0.00001108    0.00000640   -0.00003127
     atom   58 type  2   force =     0.00000001   -0.00000000    0.00441132
     atom   59 type  2   force =    -0.00000108    0.00000062   -0.00005172
     atom   60 type  2   force =     0.00003464   -0.00001998   -0.00010054
[...]
     atom  132 type  2   force =    -0.00003464   -0.00001999   -0.00010053
     atom  133 type  2   force =    -0.00000029    0.00000026    0.00023561
     atom  134 type  2   force =     0.00001791    0.00000526    0.00009483
     atom  135 type  2   force =    -0.00050941   -0.00029410   -0.00414921
     atom  136 type  1   force =    -0.00001769    0.00001020   -0.00255801
     atom  137 type  1   force =     0.00000028   -0.00000014    0.00260399
     atom  138 type  1   force =     0.00000219    0.00000989   -0.00001727
     atom  139 type  2   force =    -0.00000001   -0.00000000    0.00441132
     atom  140 type  2   force =     0.00000179   -0.00000061   -0.00004600
     atom  141 type  2   force =    -0.00000904    0.00000474   -0.00015024
     atom  142 type  2   force =     0.00000008   -0.00000038    0.00023561
     atom  143 type  2   force =     0.00001351    0.00001288    0.00009483
     atom  144 type  2   force =    -0.00010825   -0.00030888   -0.00430258
     atom  145 type  3   force =    -0.00000001   -0.00000001   -0.00672755
     atom  146 type  4   force =    -0.00000000   -0.00000001   -0.00086625

     Total force =     0.002760     Total SCF correction =     0.000497
     SCF correction compared to forces is large: reduce conv_thr to get better values
     Energy error            =      1.3E-05 Ry
     Gradient error          =      9.4E-04 Ry/Bohr

     bfgs converged in  11 scf cycles and  10 bfgs steps
     (criteria: energy <  1.0E-04 Ry, force <  1.0E-03 Ry/Bohr)

     End of BFGS Geometry Optimization

     Final energy             =  -25521.0368592631 Ry

     File ./outdir/pwscf.bfgs deleted, as requested
Begin final coordinates

ATOMIC_POSITIONS (angstrom)
Mo            1.5676018225        2.7189782389        6.0834777078
Mo            1.5769197498        0.9104407117       -6.0872367793    0   0   0
Mo            0.0002517698        1.8209700558       -0.0002431052
S             0.0000044503        0.0000077495       -7.6506323570    0   0   0
S             1.5765381502        0.9107994212       -1.5665632421
S             0.0008261170        1.8209602065        4.5059867605
S             0.0000053241        0.0000068460       -4.5222282367    0   0   0
S             1.5773996812        0.9100702255        1.5659029957
S            -0.0153230139        1.8096376284        7.6468335273
Mo           -0.0153257102        5.4606892318        6.0834819128
Mo            0.0000011799        3.6417399547       -6.0872367793    0   0   0
Mo           -1.5767109377        4.5523405483       -0.0002479835
S            -1.5769141197        2.7313069925       -7.6506323570    0   0   0
S             0.0001177406        3.6418088317       -1.5655577658
S            -1.5764227859        4.5528345738        4.5059871441
S            -1.5769132459        2.7313060890       -4.5222282367    0   0   0
S             0.0008921420        3.6422602739        1.5673385512
S            -1.5943054105        4.5445090576        7.6468340301
Mo           -1.5784792527        8.1947763359        6.0753645196
Mo           -1.5769173901        6.3730391977       -6.0872367793    0   0   0
Mo           -3.1538558418        7.2833459436       -0.0016135879
S            -3.1538326896        5.4626062355       -7.6506323570    0   0   0
S            -1.5768005707        6.3725355522       -1.5665680713
S            -3.1538551745        7.2848718829        4.5084836560
S            -3.1538318159        5.4626053320       -4.5222282367    0   0   0
S            -1.5770015604        6.3736451019        1.5658997445
S            -3.1538526978        7.2818297984        7.6427607174
Mo            3.1538160303       -0.0017874000        6.0753655943
Mo           -3.1538359601        9.1043384407       -6.0872367793    0   0   0
Mo           -4.7308778947       10.0148249287       -0.0016132720
S            -4.7307512596        8.1939054785       -7.6506323570    0   0   0
S            -3.1538586908        9.1043305052       -1.5669946781
S            -4.7295457424       10.0140446192        4.5084831412
S            -4.7307503859        8.1939045750       -4.5222282367    0   0   0
S            -3.1538557913        9.1043290572        1.5648405460
S            -4.7321799447       10.0155679963        7.6427614680
Mo            4.7400253822        2.7189707286        6.0834707002
Mo            4.7307503218        0.9104407117       -6.0872367793    0   0   0
Mo            3.1538107285        1.8208608023       -0.0013973730
S             3.1538350223        0.0000077495       -7.6506323570    0   0   0
S             4.7310864024        0.9108007407       -1.5665673784
S             3.1538105436        1.8216085294        4.5152249561
S             3.1538358961        0.0000068460       -4.5222282367    0   0   0
S             4.7302288926        0.9100713208        1.5658999831
S             3.1538163514        1.8133111603        7.6472182271
Mo            3.1538112254        5.4625897526        6.1441765224
Mo            3.1538317519        3.6417399547       -6.0872367793    0   0   0
Mo            1.5772166033        4.5523503477       -0.0004789615
S             1.5769164523        2.7313069925       -7.6506323570    0   0   0
S             3.1538085824        3.6419830236       -1.5662504972
S             1.5921967410        4.5609880243        4.5517046551
S             1.5769173261        2.7313060890       -4.5222282367    0   0   0
S             3.1538086284        3.6412654355        1.5664124204
S             1.4919957462        4.5031334364        7.6944285777
Mo            1.5708700569        8.2080995437        6.0834683382
Mo            1.5769131819        6.3730391977       -6.0872367793    0   0   0
Mo           -0.0000288113        7.2834674113       -0.0013998999
S            -0.0000021176        5.4626062355       -7.6506323570    0   0   0
S             1.5771110462        6.3729047138       -1.5662528056
S             0.0006264620        7.2830725286        4.5152249738
[...]
S             6.3069865086        7.2830757626        4.5152276695
S             6.3076599001        5.4626053320       -4.5222282367    0   0   0
S             7.8846143008        6.3736440209        1.5658994222
S             6.3141703253        7.2872269810        7.6472186007
Mo           -0.0015996554        0.0009085827        6.0708888622
Mo            6.3076557559        9.1043384407       -6.0872367793    0   0   0
Mo            4.7307625773       10.0144791838       -0.0002430155
S             4.7307404564        8.1939054785       -7.6506323570    0   0   0
S             6.3071367255        9.1044582394       -1.5665637757
S             4.7310546791       10.0139770476        4.5059831912
S             4.7307413301        8.1939045750       -4.5222282367    0   0   0
S             6.3081981209        9.1040750801        1.5659015815
S             4.7327840467       10.0336248158        7.6468324555
Pt            3.1538533183        5.4626661718        9.0305218688
H             3.1540053338        5.4630118596       10.6233860695
End final coordinates

     Writing all to output data dir ./outdir/pwscf.save/

     General routines

     Parallel routines

   This run was terminated on:   4:52: 0  19Dec2023

   JOB DONE.
Application 11518034 resources: utime ~1954377s, stime ~31550s, Rss ~2629804, inblocks ~0, outblocks ~35013392