     Program PWSCF v.7.3 starts on  3May2024 at  0:27:17

     Waiting for input...
     Reading input from standard input
Warning: card &CELL ignored
Warning: card / ignored

     Current dimensions of program PWSCF are:
     Max number of different atomic species (ntypx) = 10
     Max number of k-points (npk) =  40000
     Max angular momentum in pseudopotentials (lmaxx) =  4
     file Mo.pbe-spn-kjpaw_psl.1.0.0.UPF: wavefunction(s)  4S 4D renormalized
     file S.pbe-n-kjpaw_psl.1.0.0.UPF: wavefunction(s)  3S 3P renormalized
     file Pt.pbe-spfn-kjpaw_psl.1.0.0.UPF: wavefunction(s)  5P 4F renormalized
     file Pd.pbe-spn-kjpaw_psl.1.0.0.UPF: wavefunction(s)  4S 5S 4D renormalized

     R & G space division:  proc/nbgrp/npool/nimage =      36
     Subspace diagonalization in iterative solution of the eigenvalue problem:
     one sub-group per band group will be used

     Using Slab Decomposition

     bravais-lattice index     =            0
     lattice parameter (alat)  =      23.8199  a.u.
     unit-cell volume          =   33861.0370 (a.u.)^3
     number of atoms/cell      =          195
     number of atomic types    =            4
     number of electrons       =      1732.00
     number of Kohn-Sham states=         1039
     kinetic-energy cutoff     =      77.0000  Ry
     charge density cutoff     =     539.0000  Ry
     scf convergence threshold =      1.0E-06
     mixing beta               =       0.2000
     number of iterations used =            8  plain     mixing
     energy convergence thresh.=      1.0E-04
     force convergence thresh. =      1.0E-03
     Exchange-correlation= SLA  PW   PBX  PBC
                           (   1   4   3   4   0   0   0)
     nstep                     =         1000

     Effective Screening Medium Method
     Boundary Conditions: Vacuum-Slab-Vacuum
     total charge in unit cell        =   0.0000
     grid points for fit at edges     =        4

     celldm(1)=  23.819920  celldm(2)=   0.000000  celldm(3)=   0.000000
     celldm(4)=   0.000000  celldm(5)=   0.000000  celldm(6)=   0.000000

     crystal axes: (cart. coord. in units of alat)
               a(1) = (   1.000000   0.000000   0.000000 )
               a(2) = (  -0.499999   0.866026   0.000000 )
               a(3) = (   0.000000   0.000000   2.893000 )

     reciprocal axes: (cart. coord. in units 2 pi/alat)
               b(1) = (  1.000000  0.577349  0.000000 )
               b(2) = (  0.000000  1.154700  0.000000 )
               b(3) = (  0.000000  0.000000  0.345662 )

     PseudoPot. # 1 for Mo read from file:
     ./pseudo/Mo.pbe-spn-kjpaw_psl.1.0.0.UPF
     MD5 check sum: 317bf72632116215fd98f72de1686f13
     Pseudo is Projector augmented-wave + core cor, Zval = 14.0
     Generated using 'atomic' code by A. Dal Corso  v.7.2
     Shape of augmentation charge: PSQ
     Using radial grid of 1229 points,  6 beta functions with:
                l(1) =   0
                l(2) =   0
                l(3) =   1
                l(4) =   1
                l(5) =   2
                l(6) =   2
     Q(r) pseudized with 0 coefficients

     PseudoPot. # 2 for S  read from file:
     ./pseudo/S.pbe-n-kjpaw_psl.1.0.0.UPF
     MD5 check sum: 8b7b5302570d38d5e87fed6a1065abda
     Pseudo is Projector augmented-wave + core cor, Zval =  6.0
     Generated using 'atomic' code by A. Dal Corso  v.7.2
     Shape of augmentation charge: PSQ
     Using radial grid of 1151 points,  6 beta functions with:
                l(1) =   0
                l(2) =   0
                l(3) =   1
                l(4) =   1
                l(5) =   2
                l(6) =   2
     Q(r) pseudized with 0 coefficients

     PseudoPot. # 3 for Pt read from file:
     ./pseudo/Pt.pbe-spfn-kjpaw_psl.1.0.0.UPF
     MD5 check sum: 620096ebf4e6ebacc94de60fd67efcb5
     Pseudo is Projector augmented-wave + core cor, Zval = 32.0
     Generated using 'atomic' code by A. Dal Corso  v.7.2
     Shape of augmentation charge: PSQ
     Using radial grid of 1277 points,  8 beta functions with:
                l(1) =   0
                l(2) =   0
                l(3) =   1
                l(4) =   1
                l(5) =   2
                l(6) =   2
                l(7) =   3
                l(8) =   3
     Q(r) pseudized with 0 coefficients

     PseudoPot. # 4 for Pd read from file:
     ./pseudo/Pd.pbe-spn-kjpaw_psl.1.0.0.UPF
     MD5 check sum: a60571a671f2502b8a6a4569d20a6edb
     Pseudo is Projector augmented-wave + core cor, Zval = 18.0
     Generated using 'atomic' code by A. Dal Corso  v.7.2
     Shape of augmentation charge: PSQ
     Using radial grid of 1235 points,  6 beta functions with:
                l(1) =   0
                l(2) =   0
                l(3) =   1
                l(4) =   1
                l(5) =   2
                l(6) =   2
     Q(r) pseudized with 0 coefficients

     atomic species   valence    mass     pseudopotential
     Mo               14.00    95.95000     Mo( 1.00)
     S                 6.00    32.06000     S ( 1.00)
     Pt               32.00   195.08400     Pt( 1.00)
     Pd               18.00   106.42000     Pd( 1.00)

     No symmetry found

   Cartesian axes

     site n.     atom                  positions (alat units)
         1        Mo     tau(   1) = (   0.0000010   0.1443372  -0.7272732  )
         2        Mo     tau(   2) = (   0.1249995   0.0721706  -0.2424038  )
         3        S      tau(   3) = (   0.0000015   0.1443386  -0.3667807  )
         4        S      tau(   4) = (   0.1250010   0.0721682  -0.6030489  )
         5        S      tau(   5) = (   0.1250010   0.0721683  -0.8514963  )
         6        S      tau(   6) = (   0.0000015   0.1443389  -0.1180260  )
         7        Mo     tau(   7) = (   0.0000005   0.1443381   0.2424561  )
         8        Mo     tau(   8) = (   0.1251981   0.0716023   0.7276027  )
         9        S      tau(   9) = (  -0.0003031   0.1454842   0.6052312  )
        10        S      tau(  10) = (   0.1249558   0.0721599   0.3668208  )
        11        S      tau(  11) = (   0.1250088   0.0721517   0.1180857  )
        12        S      tau(  12) = (  -0.0004157   0.1382876   0.8564685  )
        13        Mo     tau(  13) = (  -0.1249989   0.3608437  -0.7272732  )
        14        Mo     tau(  14) = (   0.0000030   0.2886752  -0.2424042  )
        15        S      tau(  15) = (  -0.1249977   0.3608450  -0.3667802  )
        16        S      tau(  16) = (   0.0000012   0.2886747  -0.6030489  )
        17        S      tau(  17) = (   0.0000012   0.2886748  -0.8514963  )
        18        S      tau(  18) = (  -0.1249977   0.3608454  -0.1180274  )
        19        Mo     tau(  19) = (  -0.1249623   0.3608201   0.2425155  )
        20        Mo     tau(  20) = (  -0.0007801   0.2872696   0.7308518  )
        21        S      tau(  21) = (  -0.1240398   0.3604107   0.6055268  )
        22        S      tau(  22) = (   0.0000411   0.2886546   0.3669163  )
        23        S      tau(  23) = (   0.0000035   0.2886726   0.1180964  )
        24        S      tau(  24) = (  -0.1315418   0.3638985   0.8543850  )
        25        Mo     tau(  25) = (  -0.2499987   0.5773502  -0.7272732  )
        26        Mo     tau(  26) = (  -0.1249977   0.5051839  -0.2424055  )
        27        S      tau(  27) = (  -0.2499981   0.5773518  -0.3667809  )
        28        S      tau(  28) = (  -0.1249986   0.5051812  -0.6030489  )
        29        S      tau(  29) = (  -0.1249986   0.5051813  -0.8514963  )
        30        S      tau(  30) = (  -0.2499979   0.5773512  -0.1180266  )
        31        Mo     tau(  31) = (  -0.2499787   0.5773156   0.2425145  )
        32        Mo     tau(  32) = (  -0.1271807   0.5060660   0.7281741  )
        33        S      tau(  33) = (  -0.2502658   0.5775034   0.6017985  )
        34        S      tau(  34) = (  -0.1249543   0.5051367   0.3669386  )
        35        S      tau(  35) = (  -0.1249864   0.5051552   0.1181399  )
        36        S      tau(  36) = (  -0.2525628   0.5785576   0.8514793  )
        37        Mo     tau(  37) = (  -0.3749985   0.7938567  -0.7272732  )
        38        Mo     tau(  38) = (  -0.2500001   0.7216874  -0.2424031  )
        39        S      tau(  39) = (  -0.3749980   0.7938584  -0.3667800  )
        40        S      tau(  40) = (  -0.2499984   0.7216877  -0.6030489  )
        41        S      tau(  41) = (  -0.2499984   0.7216878  -0.8514963  )
        42        S      tau(  42) = (  -0.3749982   0.7938585  -0.1180264  )
        43        Mo     tau(  43) = (  -0.3750043   0.7938372   0.2424536  )
        44        Mo     tau(  44) = (  -0.2503619   0.7218808   0.7263407  )
        45        S      tau(  45) = (  -0.3755748   0.7941519   0.6023691  )
        46        S      tau(  46) = (  -0.2500067   0.7216811   0.3668312  )
        47        S      tau(  47) = (  -0.2499793   0.7216445   0.1181126  )
        48        S      tau(  48) = (  -0.3746959   0.7932047   0.8515893  )
        49        Mo     tau(  49) = (   0.2500010   0.1443372  -0.7272732  )
        50        Mo     tau(  50) = (   0.3750034   0.0721723  -0.2424032  )
        51        S      tau(  51) = (   0.2500017   0.1443391  -0.3667788  )
        52        S      tau(  52) = (   0.3750010   0.0721682  -0.6030489  )
        53        S      tau(  53) = (   0.3750010   0.0721683  -0.8514963  )
        54        S      tau(  54) = (   0.2500016   0.1443391  -0.1180271  )
        55        Mo     tau(  55) = (   0.2500033   0.1443124   0.2424881  )
        56        Mo     tau(  56) = (   0.3752595   0.0716472   0.7255395  )
        57        S      tau(  57) = (   0.2498544   0.1431280   0.6011361  )
        58        S      tau(  58) = (   0.3750516   0.0721435   0.3668117  )
        59        S      tau(  59) = (   0.3750079   0.0721203   0.1180977  )
        60        S      tau(  60) = (   0.2517312   0.1427646   0.8506906  )
[...]
       181        Mo     tau( 181) = (   0.3750016   0.7938567  -0.7272732  )
       182        Mo     tau( 182) = (   0.5000025   0.7216901  -0.2424039  )
       183        S      tau( 183) = (   0.3750019   0.7938578  -0.3667793  )
       184        S      tau( 184) = (   0.5000016   0.7216877  -0.6030489  )
       185        S      tau( 185) = (   0.5000016   0.7216878  -0.8514963  )
       186        S      tau( 186) = (   0.3750020   0.7938579  -0.1180272  )
       187        Mo     tau( 187) = (   0.3749951   0.7938323   0.2424893  )
       188        Mo     tau( 188) = (   0.4998599   0.7217391   0.7271366  )
       189        S      tau( 189) = (   0.3746033   0.7939741   0.6029663  )
       190        S      tau( 190) = (   0.4999946   0.7216688   0.3668260  )
       191        S      tau( 191) = (   0.4999891   0.7216628   0.1180901  )
       192        S      tau( 192) = (   0.3755955   0.7938624   0.8526444  )
       193        Pt     tau( 193) = (   0.1194898   0.4990527   0.9549993  )
       194        Pd     tau( 194) = (   0.0026419   0.2990244   0.9662205  )
       195        Pd     tau( 195) = (   0.0610474   0.3990493   1.1295555  )

     DFT-D3 Dispersion Correction (3-body terms):
       Reference C6 values for interpolation:

[...]
   -40.6627 -40.6627 -40.6625 -40.6623 -40.6618 -40.6618 -40.6618 -40.6618
   -40.6609 -40.6418 -40.6372 -40.6280 -40.6280 -40.6280 -40.6280 -40.6280
   -40.6279 -40.6279 -40.6278 -40.6270 -40.6270 -40.6270 -40.6270 -40.6232
   -40.6188 -40.6159 -40.6159 -40.6158 -40.6156 -40.6149 -40.6149 -40.6124
   -40.6037 -40.6012 -40.5967 -40.5965 -40.5965 -40.5962 -40.5956 -40.5956
   -40.5858 -40.5825 -40.5795 -40.5795 -40.5795 -40.5794 -40.5785 -40.5785
   -40.5776 -40.5599 -40.5490 -40.5489 -40.5489 -40.5486 -40.5480 -40.5478
   -40.5478 -40.5352 -40.5016 -20.0918 -19.8814 -19.8614 -19.8222 -19.7650
   -19.7299 -19.6551 -19.6396 -19.5424 -19.4673 -19.4245 -19.4103 -19.3357
   -19.3175 -19.2314 -19.2194 -19.1272 -18.8438 -18.8134 -18.7816 -18.7551
   -18.7338 -18.7165 -18.7113 -18.7104 -18.7004 -18.6933 -18.6562 -18.6472
   -18.6389 -18.6330 -18.6177 -18.5786 -18.5764 -18.5637 -18.5464 -18.5412
   -18.5397 -18.5376 -18.5146 -18.4889 -18.4801 -18.4783 -18.4702 -18.4599
   -18.4288 -18.4050 -18.4029 -18.3936 -18.3885 -18.3664 -18.3511 -18.3246
   -18.3150 -18.3097 -18.3051 -18.2554 -18.2382 -18.2301 -18.2252 -18.2003
   -18.1845 -18.1657 -18.1586 -18.1434 -18.1170 -18.1063 -18.1026 -18.0954
   -18.0937 -18.0909 -18.0887 -18.0699 -18.0668 -18.0660 -18.0637 -18.0596
   -18.0571 -18.0544 -18.0415 -18.0399 -18.0338 -18.0294 -18.0241 -18.0048
   -17.9993 -17.9954 -17.9927 -17.9925 -17.9894 -17.9862 -17.9814 -17.9794
   -17.9695 -17.9475 -17.9306 -17.9288 -17.9257 -17.9204 -17.9138 -17.8873
   -17.8802 -17.8740 -17.8699 -17.8448 -17.8419 -17.8348 -17.8329 -17.8277
   -17.8246 -17.8122 -17.8108 -17.8104 -17.8099 -17.8094 -17.8090 -17.7972
   -17.7954 -17.7783 -17.7752 -17.7540 -17.7516 -17.7351 -17.7326 -17.7197
   -17.7186 -17.7115 -17.7113 -12.1896 -11.9552 -11.7254 -11.7169 -11.6651
   -11.5927 -11.5120 -11.5100 -11.4956 -11.4919 -11.4795 -11.4752 -11.4716
   -11.4479 -11.4411 -11.4270 -11.3991 -11.3897 -11.3847 -11.3596 -11.3405
   -11.3340 -11.3291 -11.3107 -11.2968 -11.2898 -11.2847 -11.2684 -11.2555
   -11.2527 -11.2524 -11.2475 -11.2429 -11.2023 -11.1993 -11.1908 -11.1865
   -11.1720 -11.1630 -11.1621 -11.1596 -11.1475 -11.1419 -11.1384 -11.1308
   -11.1169 -11.1063 -11.0881 -11.0653 -11.0620 -11.0444 -11.0339 -10.9938
   -10.9765 -10.9505 -10.9387 -10.9300 -10.9185 -10.8957 -10.8877 -10.8776
   -10.8645 -10.8435 -10.8294 -10.8257 -10.8246 -10.8227 -10.8068 -10.8041
   -10.8035 -10.8023 -10.8022 -10.7967 -10.7930 -10.7893 -10.7883 -10.7837
[...]
    -3.3982  -3.3590  -3.3447  -3.3413  -3.3389  -3.3330  -3.3307  -3.3289
    -3.3273  -3.3146  -3.3048  -3.2865  -3.2822  -3.2768  -3.2720  -3.2691
    -3.2674  -3.2669  -3.2639  -3.2473  -3.2378  -3.2341  -3.2320  -3.2207
    -3.2182  -3.2149  -3.2082  -3.2021  -3.2010  -3.1907  -3.1843  -3.1794
    -3.1711  -3.1662  -3.1654  -3.1578  -3.1521  -3.1521  -3.1509  -3.1337
    -3.1272  -3.0996  -3.0835  -3.0805  -3.0634  -3.0580  -3.0567  -3.0485
    -3.0403  -3.0226  -3.0177  -3.0142  -3.0116  -3.0108  -3.0103  -3.0066
    -3.0028  -2.9995  -2.9955  -2.9937  -2.9882  -2.9818  -2.9777  -2.9741
    -2.9690  -2.9624  -2.9603  -2.9582  -2.9561  -2.9540  -2.9406  -2.9380
    -2.9362  -2.9326  -2.9297  -2.9254  -2.9219  -2.9181  -2.9022  -2.8945
    -2.8887  -2.8746  -2.8712  -2.8678  -2.8628  -2.8484  -2.8399  -2.7901
    -2.7843  -2.7770  -2.7721  -2.7209  -2.7155  -2.7104  -2.7051  -2.6167
    -2.6016  -2.5862  -2.5761  -2.5677  -2.5545  -2.5369  -2.5329  -2.5245
    -2.5204  -2.5181  -2.5167  -2.5158  -2.5032  -2.4712  -2.4400  -2.4075
    -2.3928  -2.3856  -2.3794  -2.3684  -2.3664  -2.3564  -2.3372

     the Fermi energy is    -4.8031 ev

!    total energy              =  -34492.24314310 Ry
     total all-electron energy =   -677498.122830 Ry
     estimated scf accuracy    <          8.0E-09 Ry
     smearing contrib. (-TS)   =      -0.00052391 Ry
     internal energy E=F+TS    =  -34492.24261919 Ry

     The total energy is F=E-TS. E is the sum of the following terms:
     one-electron contribution = 1202121.23794731 Ry
     hartree contribution      = -601238.65274665 Ry
     xc contribution           =   -2041.53858766 Ry
     ewald contribution        = -611769.69944390 Ry
     DFT-D3 Dispersion         =      -5.45138206 Ry
     one-center paw contrib.   =  -21558.13840622 Ry

     convergence has been achieved in  11 iterations

     negative rho (up, down):  9.199E-04 0.000E+00

     Forces acting on atoms (cartesian axes, Ry/au):

     atom    1 type  1   force =     0.00000274   -0.00000045    0.00068564
     atom    2 type  1   force =     0.00002786   -0.00000795    0.00000474
     atom    3 type  2   force =     0.00000330   -0.00000006   -0.00000073
     atom    4 type  2   force =     0.00000123   -0.00000026    0.00161413
     atom    5 type  2   force =     0.00000087   -0.00000079   -0.00236223
     atom    6 type  2   force =     0.00000084   -0.00000204    0.00004226
     atom    7 type  1   force =     0.00001805    0.00003050   -0.00012877
     atom    8 type  1   force =    -0.00012949   -0.00000746   -0.00003150
     atom    9 type  2   force =    -0.00021362   -0.00043706    0.00035220
     atom   10 type  2   force =     0.00000793   -0.00000750    0.00002654
     atom   11 type  2   force =    -0.00000067   -0.00000296    0.00003720
     atom   12 type  2   force =    -0.00004574    0.00016448   -0.00021164
     atom   13 type  1   force =     0.00000323   -0.00000114    0.00068553
     atom   14 type  1   force =    -0.00000914    0.00001257    0.00000777
     atom   15 type  2   force =     0.00000558   -0.00000040    0.00000187
     atom   16 type  2   force =     0.00000137   -0.00000030    0.00161417
     atom   17 type  2   force =     0.00000102   -0.00000079   -0.00236289
     atom   18 type  2   force =     0.00000374    0.00000201    0.00003097
     atom   19 type  1   force =     0.00002863   -0.00000470   -0.00010454
     atom   20 type  1   force =    -0.00004837   -0.00030957    0.00037809
     atom   21 type  2   force =     0.00041525   -0.00026362   -0.00013221
     atom   22 type  2   force =    -0.00001290   -0.00002432    0.00005653
     atom   23 type  2   force =     0.00000451    0.00001315    0.00002862
     atom   24 type  2   force =    -0.00008551    0.00006677   -0.00011853
     atom   25 type  1   force =     0.00000295   -0.00000130    0.00068480
     atom   26 type  1   force =     0.00000156   -0.00000851    0.00001812
     atom   27 type  2   force =     0.00000275    0.00000121   -0.00000136
     atom   28 type  2   force =     0.00000131   -0.00000043    0.00161401
     atom   29 type  2   force =     0.00000115   -0.00000100   -0.00236264
     atom   30 type  2   force =     0.00000322   -0.00000449    0.00003533
     atom   31 type  1   force =     0.00001969   -0.00000116   -0.00008631
     atom   32 type  1   force =     0.00025795   -0.00012843   -0.00022365
     atom   33 type  2   force =     0.00022846   -0.00007459   -0.00012996
     atom   34 type  2   force =     0.00000148   -0.00001043    0.00007966
     atom   35 type  2   force =     0.00000062    0.00000773    0.00005174
     atom   36 type  2   force =     0.00029056   -0.00025036    0.00014098
     atom   37 type  1   force =     0.00000372   -0.00000113    0.00068491
     atom   38 type  1   force =     0.00002743    0.00002124   -0.00000155
     atom   39 type  2   force =     0.00000194    0.00000053    0.00000242
     atom   40 type  2   force =     0.00000135   -0.00000031    0.00161396
     atom   41 type  2   force =     0.00000104   -0.00000094   -0.00236208
     atom   42 type  2   force =    -0.00000346    0.00000067    0.00003911
     atom   43 type  1   force =     0.00000770   -0.00000524   -0.00012513
     atom   44 type  1   force =     0.00033050   -0.00017814   -0.00011481
     atom   45 type  2   force =     0.00010886   -0.00018771    0.00037637
     atom   46 type  2   force =     0.00002454    0.00002514    0.00004053
     atom   47 type  2   force =     0.00003791   -0.00002206    0.00005241
     atom   48 type  2   force =    -0.00009155   -0.00009036   -0.00022886
     atom   49 type  1   force =     0.00000292   -0.00000112    0.00068539
     atom   50 type  1   force =    -0.00002452   -0.00002779    0.00000066
     atom   51 type  2   force =     0.00000151    0.00000212    0.00000314
     atom   52 type  2   force =     0.00000095   -0.00000039    0.00161420
     atom   53 type  2   force =     0.00000078   -0.00000090   -0.00236197
     atom   54 type  2   force =    -0.00000265    0.00000213    0.00003543
     atom   55 type  1   force =     0.00000634    0.00001503   -0.00010744
     atom   56 type  1   force =    -0.00000728   -0.00015477   -0.00006010
     atom   57 type  2   force =    -0.00028789    0.00029643    0.00054028
     atom   58 type  2   force =     0.00000692   -0.00000886    0.00003624
     atom   59 type  2   force =     0.00001021   -0.00001321    0.00003274
     atom   60 type  2   force =    -0.00012188   -0.00032438   -0.00013790
[...]
     atom  181 type  1   force =     0.00000255   -0.00000093    0.00068494
     atom  182 type  1   force =    -0.00000937   -0.00001072    0.00000382
     atom  183 type  2   force =    -0.00000047   -0.00000199    0.00000174
     atom  184 type  2   force =     0.00000115   -0.00000043    0.00161411
     atom  185 type  2   force =     0.00000094   -0.00000093   -0.00236208
     atom  186 type  2   force =    -0.00000285   -0.00000265    0.00003528
     atom  187 type  1   force =     0.00002420   -0.00002347   -0.00012519
     atom  188 type  1   force =    -0.00012018   -0.00011776   -0.00003314
     atom  189 type  2   force =    -0.00007834   -0.00000731    0.00017622
     atom  190 type  2   force =     0.00002788   -0.00000947    0.00000839
     atom  191 type  2   force =     0.00000066   -0.00002136    0.00001663
     atom  192 type  2   force =     0.00014484    0.00029296    0.00014492
     atom  193 type  3   force =     0.00006640    0.00096548   -0.00065866
     atom  194 type  4   force =    -0.00049678   -0.00054674   -0.00075627
     atom  195 type  4   force =    -0.00068771    0.00010028    0.00045653

     Total force =     0.003164     Total SCF correction =     0.000640
     SCF correction compared to forces is large: reduce conv_thr to get better values
     Energy error            =      2.1E-05 Ry
     Gradient error          =      9.7E-04 Ry/Bohr

     bfgs converged in  36 scf cycles and  35 bfgs steps
     (criteria: energy <  1.0E-04 Ry, force <  1.0E-03 Ry/Bohr)

     End of BFGS Geometry Optimization

     Final energy             =  -34492.2431430969 Ry

     File ./outdir/pwscf.bfgs deleted, as requested
Begin final coordinates

ATOMIC_POSITIONS (angstrom)
Mo               0.0000119917        1.8193638619       -9.1672481230    0   0   0
Mo               1.5756136568        0.9097075315       -3.0554901653    0   0   0
S                0.0000188998        1.8193822938       -4.6232556019    0   0   0
S                1.5756321638        0.9096773839       -7.6014065489    0   0   0
S                1.5756326175        0.9096785128      -10.7330757790    0   0   0
S                0.0000189190        1.8193860094       -1.4877129945    0   0   0
Mo              -0.0003896612        1.8196305034        3.0589936320
Mo               1.5861964898        0.9003313303        9.1698153098
S                0.0036828227        1.8338046527        7.6276320582
S                1.5747953217        0.9098061978        4.6266884665
S                1.5752739921        0.9097305965        1.4912562339
S               -0.0009832441        1.6978838635       10.7968843634
Mo              -1.5756053507        4.5484193819       -9.1672481230    0   0   0
Mo               0.0000378379        3.6387394919       -3.0554952701    0   0   0
S               -1.5755913433        4.5484363582       -4.6232494962    0   0   0
S                0.0000148214        3.6387329039       -7.6014065489    0   0   0
S                0.0000152751        3.6387340328      -10.7330757790    0   0   0
S               -1.5755906502        4.5484413613       -1.4877305502    0   0   0
Mo              -1.5755414366        4.5482834448        3.0590299662
Mo              -0.0112802570        3.6130196350        9.2234387213
S               -1.5594358628        4.5429737024        7.6407664133
S                0.0000415875        3.6390358947        4.6272917239
S               -0.0002483764        3.6386296862        1.4909362547
S               -1.6488331203        4.5743808948       10.7768200502
Mo              -3.1512226931        7.2774749019       -9.1672481230    0   0   0
Mo              -1.5755910988        6.3678216792       -3.0555115988    0   0   0
S               -3.1512162438        7.2774954350       -4.6232578178    0   0   0
S               -1.5756025210        6.3677884239       -7.6014065489    0   0   0
S               -1.5756020673        6.3677895528      -10.7330757790    0   0   0
S               -3.1512127704        7.2774877076       -1.4877200710    0   0   0
Mo              -3.1514192399        7.2770714106        3.0588747349
Mo              -1.5949756144        6.3786405238        9.1887519845
S               -3.1446256073        7.2724581029        7.5917407386
S               -1.5754207917        6.3673472276        4.6271354533
S               -1.5758230348        6.3675072546        1.4910120830
S               -3.1773312141        7.2919762289       10.7397449192
Mo              -4.7268400355       10.0065304219       -9.1672481230    0   0   0
Mo              -3.1512405618        9.0968403586       -3.0554816746    0   0   0
S               -4.7268341792       10.0065523623       -4.6232463762    0   0   0
S               -3.1512198634        9.0968439439       -7.6014065489    0   0   0
S               -3.1512194097        9.0968450728      -10.7330757790    0   0   0
S               -4.7268370797       10.0065537885       -1.4877176751    0   0   0
Mo              -4.7273350848       10.0064510662        3.0589353018
Mo              -3.1505851469        9.0957967210        9.1569167718
S               -4.7260006338       10.0078644291        7.5893622004
S               -3.1516239322        9.0963575682        4.6262700033
S               -3.1517577699        9.0966677273        1.4910521511
S               -4.7191508653        9.9926592681       10.7312278619
Mo               3.1512517547        1.8193638619       -9.1672481230    0   0   0
Mo               4.7269020221        0.9097289540       -3.0554823951    0   0   0
S                3.1512612351        1.8193882564       -4.6232320683    0   0   0
S                4.7268719268        0.9096773839       -7.6014065489    0   0   0
S                4.7268723805        0.9096785128      -10.7330757790    0   0   0
S                3.1512592485        1.8193890201       -1.4877261251    0   0   0
Mo               3.1507426680        1.8194114358        3.0593554867
Mo               4.7326406057        0.9038826179        9.1546585922
S                3.1562049741        1.8126412264        7.5863227855
S                4.7268571711        0.9095274449        4.6262137880
S                4.7262300130        0.9095255085        1.4911885931
S                3.1711207484        1.7979847107       10.7337708972
[...]
Mo               4.7268792535       10.0065304219       -9.1672481230    0   0   0
Mo               6.3025111524        9.0968738021       -3.0554915260    0   0   0
S                4.7268840634       10.0065452125       -4.6232380477    0   0   0
S                6.3024994256        9.0968439439       -7.6014065489    0   0   0
S                6.3024998793        9.0968450728      -10.7330757790    0   0   0
S                4.7268847312       10.0065459141       -1.4877283294    0   0   0
Mo               4.7262323971       10.0064812795        3.0593288285
Mo               6.3052660945        9.0946243711        9.1595423921
S                4.7271586137       10.0032730666        7.5898896936
S                6.3019852212        9.0966581625        4.6263583042
S                6.3018145403        9.0968574866        1.4912534468
S                4.7350174791       10.0004919313       10.7376300753
Pt               1.5732352629        6.3081847367       12.0673976647
Pd               0.0602411210        3.6332214075       12.1629967509
Pd               0.4857804964        5.2680863549       14.1213096214
End final coordinates

     Writing all to output data dir ./outdir/pwscf.save/ :
     XML data file, charge density, pseudopotentials, collected wavefunctions

     General routines

     Parallel routines

   This run was terminated on:  19:13:33   3May2024

   JOB DONE.