     Program PWSCF v.7.2 starts on  3Nov2023 at 18:37: 2

     Waiting for input...
     Reading input from standard input
Warning: card &CELL ignored
Warning: card / ignored

     Current dimensions of program PWSCF are:
     Max number of different atomic species (ntypx) = 10
     Max number of k-points (npk) =  40000
     Max angular momentum in pseudopotentials (lmaxx) =  4
     file Mo.pbe-spn-kjpaw_psl.1.0.0.UPF: wavefunction(s)  4S 4D renormalized
     file S.pbe-n-kjpaw_psl.1.0.0.UPF: wavefunction(s)  3S 3P renormalized
     file Pd.pbe-spn-kjpaw_psl.1.0.0.UPF: wavefunction(s)  4S 5S 4D renormalized

     R & G space division:  proc/nbgrp/npool/nimage =      36
     Subspace diagonalization in iterative solution of the eigenvalue problem:
     one sub-group per band group will be used

     Using Slab Decomposition

     bravais-lattice index     =            0
     lattice parameter (alat)  =      23.8199  a.u.
     unit-cell volume          =   33861.0370 (a.u.)^3
     number of atoms/cell      =          195
     number of atomic types    =            3
     number of electrons       =      1718.00
     number of Kohn-Sham states=         1031
     kinetic-energy cutoff     =      77.0000  Ry
     charge density cutoff     =     539.0000  Ry
     scf convergence threshold =      1.0E-06
     mixing beta               =       0.2000
     number of iterations used =            8  plain     mixing
     energy convergence thresh.=      1.0E-04
     force convergence thresh. =      1.0E-03
     Exchange-correlation= SLA  PW   PBX  PBC
                           (   1   4   3   4   0   0   0)
     nstep                     =         1000

     Effective Screening Medium Method
     Boundary Conditions: Vacuum-Slab-Vacuum
     total charge in unit cell        =   0.0000
     grid points for fit at edges     =        4

     celldm(1)=  23.819920  celldm(2)=   0.000000  celldm(3)=   0.000000
     celldm(4)=   0.000000  celldm(5)=   0.000000  celldm(6)=   0.000000

     crystal axes: (cart. coord. in units of alat)
               a(1) = (   1.000000   0.000000   0.000000 )
               a(2) = (  -0.499999   0.866026   0.000000 )
               a(3) = (   0.000000   0.000000   2.893000 )

     reciprocal axes: (cart. coord. in units 2 pi/alat)
               b(1) = (  1.000000  0.577349  0.000000 )
               b(2) = (  0.000000  1.154700  0.000000 )
               b(3) = (  0.000000  0.000000  0.345662 )

     PseudoPot. # 1 for Mo read from file:
     ./pseudo/Mo.pbe-spn-kjpaw_psl.1.0.0.UPF
     MD5 check sum: 317bf72632116215fd98f72de1686f13
     Pseudo is Projector augmented-wave + core cor, Zval = 14.0
     Generated using 'atomic' code by A. Dal Corso  v.7.2
     Shape of augmentation charge: PSQ
     Using radial grid of 1229 points,  6 beta functions with:
                l(1) =   0
                l(2) =   0
                l(3) =   1
                l(4) =   1
                l(5) =   2
                l(6) =   2
     Q(r) pseudized with 0 coefficients

     PseudoPot. # 2 for S  read from file:
     ./pseudo/S.pbe-n-kjpaw_psl.1.0.0.UPF
     MD5 check sum: 8b7b5302570d38d5e87fed6a1065abda
     Pseudo is Projector augmented-wave + core cor, Zval =  6.0
     Generated using 'atomic' code by A. Dal Corso  v.7.2
     Shape of augmentation charge: PSQ
     Using radial grid of 1151 points,  6 beta functions with:
                l(1) =   0
                l(2) =   0
                l(3) =   1
                l(4) =   1
                l(5) =   2
                l(6) =   2
     Q(r) pseudized with 0 coefficients

     PseudoPot. # 3 for Pd read from file:
     ./pseudo/Pd.pbe-spn-kjpaw_psl.1.0.0.UPF
     MD5 check sum: a60571a671f2502b8a6a4569d20a6edb
     Pseudo is Projector augmented-wave + core cor, Zval = 18.0
     Generated using 'atomic' code by A. Dal Corso  v.7.2
     Shape of augmentation charge: PSQ
     Using radial grid of 1235 points,  6 beta functions with:
                l(1) =   0
                l(2) =   0
                l(3) =   1
                l(4) =   1
                l(5) =   2
                l(6) =   2
     Q(r) pseudized with 0 coefficients

     atomic species   valence    mass     pseudopotential
        Mo            14.00    95.95000     Mo( 1.00)
        S              6.00    32.06000     S ( 1.00)
        Pd            18.00   106.42000     Pd( 1.00)

     No symmetry found

   Cartesian axes

     site n.     atom                  positions (alat units)
         1           Mo  tau(   1) = (   0.0000010   0.1443372  -0.7272732  )
         2           Mo  tau(   2) = (   0.1249995   0.0721706  -0.2424038  )
         3           S   tau(   3) = (   0.0000015   0.1443386  -0.3667807  )
         4           S   tau(   4) = (   0.1250010   0.0721682  -0.6030489  )
         5           S   tau(   5) = (   0.1250010   0.0721683  -0.8514963  )
         6           S   tau(   6) = (   0.0000015   0.1443389  -0.1180260  )
         7           Mo  tau(   7) = (   0.0000222   0.1444187   0.2425595  )
         8           Mo  tau(   8) = (   0.1245966   0.0727010   0.7278826  )
         9           S   tau(   9) = (   0.0000166   0.1448419   0.6020343  )
        10           S   tau(  10) = (   0.1250561   0.0722903   0.3669179  )
        11           S   tau(  11) = (   0.1250140   0.0722444   0.1181576  )
        12           S   tau(  12) = (  -0.0013476   0.1442175   0.8515296  )
        13           Mo  tau(  13) = (  -0.1249989   0.3608437  -0.7272732  )
        14           Mo  tau(  14) = (   0.0000030   0.2886752  -0.2424042  )
        15           S   tau(  15) = (  -0.1249977   0.3608450  -0.3667802  )
        16           S   tau(  16) = (   0.0000012   0.2886747  -0.6030489  )
        17           S   tau(  17) = (   0.0000012   0.2886748  -0.8514963  )
        18           S   tau(  18) = (  -0.1249977   0.3608454  -0.1180274  )
        19           Mo  tau(  19) = (  -0.1249777   0.3609089   0.2425603  )
        20           Mo  tau(  20) = (  -0.0029637   0.2882853   0.7270120  )
        21           S   tau(  21) = (  -0.1256983   0.3625185   0.6019747  )
        22           S   tau(  22) = (   0.0000591   0.2887797   0.3669668  )
        23           S   tau(  23) = (   0.0000075   0.2887346   0.1181682  )
        24           S   tau(  24) = (  -0.1270233   0.3617098   0.8514678  )
        25           Mo  tau(  25) = (  -0.2499987   0.5773502  -0.7272732  )
        26           Mo  tau(  26) = (  -0.1249977   0.5051839  -0.2424055  )
        27           S   tau(  27) = (  -0.2499981   0.5773518  -0.3667809  )
        28           S   tau(  28) = (  -0.1249986   0.5051812  -0.6030489  )
        29           S   tau(  29) = (  -0.1249986   0.5051813  -0.8514963  )
        30           S   tau(  30) = (  -0.2499979   0.5773512  -0.1180266  )
        31           Mo  tau(  31) = (  -0.2499821   0.5774144   0.2425369  )
        32           Mo  tau(  32) = (  -0.1258229   0.5064885   0.7278520  )
        33           S   tau(  33) = (  -0.2493952   0.5788088   0.6023234  )
        34           S   tau(  34) = (  -0.1249462   0.5052707   0.3669162  )
        35           S   tau(  35) = (  -0.1249880   0.5052329   0.1181602  )
        36           S   tau(  36) = (  -0.2509230   0.5788413   0.8515814  )
        37           Mo  tau(  37) = (  -0.3749985   0.7938567  -0.7272732  )
        38           Mo  tau(  38) = (  -0.2500001   0.7216874  -0.2424031  )
        39           S   tau(  39) = (  -0.3749980   0.7938584  -0.3667800  )
        40           S   tau(  40) = (  -0.2499984   0.7216877  -0.6030489  )
        41           S   tau(  41) = (  -0.2499984   0.7216878  -0.8514963  )
        42           S   tau(  42) = (  -0.3749982   0.7938585  -0.1180264  )
        43           Mo  tau(  43) = (  -0.3749910   0.7939458   0.2425394  )
        44           Mo  tau(  44) = (  -0.2499391   0.7230231   0.7269923  )
        45           S   tau(  45) = (  -0.3746478   0.7955125   0.6023635  )
        46           S   tau(  46) = (  -0.2500018   0.7217675   0.3668983  )
        47           S   tau(  47) = (  -0.2499845   0.7217593   0.1181709  )
        48           S   tau(  48) = (  -0.3753625   0.7942039   0.8516391  )
        49           Mo  tau(  49) = (   0.2500010   0.1443372  -0.7272732  )
        50           Mo  tau(  50) = (   0.3750034   0.0721723  -0.2424032  )
        51           S   tau(  51) = (   0.2500017   0.1443391  -0.3667788  )
        52           S   tau(  52) = (   0.3750010   0.0721682  -0.6030489  )
        53           S   tau(  53) = (   0.3750010   0.0721683  -0.8514963  )
        54           S   tau(  54) = (   0.2500016   0.1443391  -0.1180271  )
        55           Mo  tau(  55) = (   0.2500120   0.1444423   0.2425270  )
        56           Mo  tau(  56) = (   0.3753385   0.0727176   0.7280385  )
        57           S   tau(  57) = (   0.2501061   0.1471948   0.6059873  )
        58           S   tau(  58) = (   0.3749665   0.0722824   0.3669588  )
        59           S   tau(  59) = (   0.3750194   0.0722259   0.1181828  )
        60           S   tau(  60) = (   0.2503224   0.1381707   0.8567863  )
[...]
       181           Mo  tau( 181) = (   0.3750016   0.7938567  -0.7272732  )
       182           Mo  tau( 182) = (   0.5000025   0.7216901  -0.2424039  )
       183           S   tau( 183) = (   0.3750019   0.7938578  -0.3667793  )
       184           S   tau( 184) = (   0.5000016   0.7216877  -0.6030489  )
       185           S   tau( 185) = (   0.5000016   0.7216878  -0.8514963  )
       186           S   tau( 186) = (   0.3750020   0.7938579  -0.1180272  )
       187           Mo  tau( 187) = (   0.3749890   0.7939067   0.2425443  )
       188           Mo  tau( 188) = (   0.5002702   0.7230996   0.7264112  )
       189           S   tau( 189) = (   0.3747820   0.7948530   0.6019718  )
       190           S   tau( 190) = (   0.5000014   0.7217825   0.3669010  )
       191           S   tau( 191) = (   0.5000049   0.7217309   0.1181759  )
       192           S   tau( 192) = (   0.3757788   0.7958654   0.8513800  )
       193           Pd  tau( 193) = (   0.1298567   0.5028633   0.9631584  )
       194           Pd  tau( 194) = (   0.2489715   0.2959876   0.9631435  )
       195           Pd  tau( 195) = (   0.2504570   0.7240008   0.9719984  )

     DFT-D3 Dispersion Correction (3-body terms):
       Reference C6 values for interpolation:

         atom   Coordination number   C6
         S          0.000           268.01
         S          0.995           261.99
         S          1.990           251.62
         Mo         0.000          1691.79
         Mo         1.942          1004.01
         Mo        11.056           674.22
         Pd         0.000          1217.01
         Pd         1.863           573.90
         Pd         5.710           531.75

       Values used:

         atom   Coordination number  R0_AB[au]  C6      C8
         Mo        10.208            3.547    674.22  77634.20
         Mo        10.221            3.547    674.22  77634.20
         S          3.858            3.128    251.62  12327.25
         S          3.859            3.128    251.62  12327.25
[...]
     atom   15 type  2   force =     0.00000000    0.00000000    0.00000000
     atom   16 type  2   force =     0.00000000    0.00000000    0.00000000
     atom   17 type  2   force =     0.00000000    0.00000000    0.00000000
     atom   18 type  2   force =     0.00000000    0.00000000    0.00000000
     atom   19 type  1   force =    -0.00001326    0.00000704   -0.00003511
     atom   20 type  1   force =     0.00003882    0.00002812    0.00002025
     atom   21 type  2   force =    -0.00000443   -0.00000366   -0.00000708
     atom   22 type  2   force =    -0.00000071    0.00000126   -0.00000296
     atom   23 type  2   force =    -0.00000012   -0.00000032   -0.00001105
     atom   24 type  2   force =     0.00001281    0.00000357    0.00000499
     atom   25 type  1   force =     0.00000000    0.00000000    0.00000000
     atom   26 type  1   force =     0.00000000    0.00000000    0.00000000
     atom   27 type  2   force =     0.00000000    0.00000000    0.00000000
     atom   28 type  2   force =     0.00000000    0.00000000    0.00000000
     atom   29 type  2   force =     0.00000000    0.00000000    0.00000000
     atom   30 type  2   force =     0.00000000    0.00000000    0.00000000
     atom   31 type  1   force =    -0.00001275   -0.00000134   -0.00002377
     atom   32 type  1   force =     0.00000491    0.00000379    0.00002315
     atom   33 type  2   force =    -0.00000049    0.00000586   -0.00000629
     atom   34 type  2   force =    -0.00000366    0.00000237   -0.00000419
     atom   35 type  2   force =     0.00000056    0.00000239   -0.00000696
     atom   36 type  2   force =     0.00000098    0.00000134   -0.00000463
     atom   37 type  1   force =     0.00000000    0.00000000    0.00000000
     atom   38 type  1   force =     0.00000000    0.00000000    0.00000000
     atom   39 type  2   force =     0.00000000    0.00000000    0.00000000
     atom   40 type  2   force =     0.00000000    0.00000000    0.00000000
     atom   41 type  2   force =     0.00000000    0.00000000    0.00000000
     atom   42 type  2   force =     0.00000000    0.00000000    0.00000000
     atom   43 type  1   force =    -0.00000921   -0.00002121   -0.00002695
     atom   44 type  1   force =    -0.00000703   -0.00003460   -0.00003237
     atom   45 type  2   force =    -0.00000116   -0.00000571   -0.00000721
     atom   46 type  2   force =    -0.00000230   -0.00000588   -0.00000609
     atom   47 type  2   force =    -0.00000067   -0.00000139   -0.00000526
     atom   48 type  2   force =     0.00000794   -0.00000476    0.00000468
     atom   49 type  1   force =     0.00000000    0.00000000    0.00000000
     atom   50 type  1   force =     0.00000000    0.00000000    0.00000000
     atom   51 type  2   force =     0.00000000    0.00000000    0.00000000
     atom   52 type  2   force =     0.00000000    0.00000000    0.00000000
     atom   53 type  2   force =     0.00000000    0.00000000    0.00000000
     atom   54 type  2   force =     0.00000000    0.00000000    0.00000000
     atom   55 type  1   force =     0.00001001   -0.00000043   -0.00002242
     atom   56 type  1   force =    -0.00000375    0.00003806   -0.00001631
     atom   57 type  2   force =     0.00000746    0.00000320   -0.00000131
     atom   58 type  2   force =     0.00000028    0.00000025   -0.00000626
     atom   59 type  2   force =     0.00000194   -0.00000427   -0.00000758
     atom   60 type  2   force =     0.00000398    0.00001380   -0.00000477
[...]
     atom  181 type  1   force =     0.00000000    0.00000000    0.00000000
     atom  182 type  1   force =     0.00000000    0.00000000    0.00000000
     atom  183 type  2   force =     0.00000000    0.00000000    0.00000000
     atom  184 type  2   force =     0.00000000    0.00000000    0.00000000
     atom  185 type  2   force =     0.00000000    0.00000000    0.00000000
     atom  186 type  2   force =     0.00000000    0.00000000    0.00000000
     atom  187 type  1   force =    -0.00000305   -0.00001369   -0.00002209
     atom  188 type  1   force =     0.00001140   -0.00003887   -0.00006936
     atom  189 type  2   force =    -0.00000024    0.00000101   -0.00000508
     atom  190 type  2   force =    -0.00000370   -0.00000477   -0.00001117
     atom  191 type  2   force =    -0.00000202   -0.00000421   -0.00000146
     atom  192 type  2   force =     0.00002594    0.00001439   -0.00001761
     atom  193 type  3   force =    -0.00003652   -0.00005477    0.00000603
     atom  194 type  3   force =    -0.00003978    0.00006339   -0.00001958
     atom  195 type  3   force =    -0.00003273   -0.00003619   -0.00000326

     DFT-D3 dispersion contribution to forces:
     atom    1 type  1   force =     0.00000000    0.00000003    0.00255965
     atom    2 type  1   force =     0.00000006    0.00000002    0.00000998
     atom    3 type  2   force =     0.00000002    0.00000001   -0.00003388
     atom    4 type  2   force =     0.00000000   -0.00000000    0.00017172
     atom    5 type  2   force =     0.00000002    0.00000001    0.00441406
     atom    6 type  2   force =     0.00000001    0.00000020    0.00009541
     atom    7 type  1   force =    -0.00001165   -0.00000224   -0.00001372
     atom    8 type  1   force =     0.00008703    0.00034957   -0.00199694
     atom    9 type  2   force =     0.00002918    0.00003660    0.00000176
     atom   10 type  2   force =     0.00000617   -0.00001439    0.00003659
     atom   11 type  2   force =     0.00000061   -0.00000064   -0.00009681
     atom   12 type  2   force =     0.00038283    0.00032435   -0.00400122
     atom   13 type  1   force =     0.00000004    0.00000000    0.00255969
     atom   14 type  1   force =     0.00000005   -0.00000006    0.00000989
     atom   15 type  2   force =     0.00000001   -0.00000000   -0.00003389
     atom   16 type  2   force =    -0.00000000    0.00000000    0.00017177
     atom   17 type  2   force =    -0.00000001   -0.00000001    0.00441397
     atom   18 type  2   force =     0.00000006    0.00000000    0.00009527
     atom   19 type  1   force =    -0.00001850   -0.00000295    0.00000131
     atom   20 type  1   force =     0.00050349    0.00030108   -0.00169175
     atom   21 type  2   force =     0.00003083    0.00000894   -0.00003026
     atom   22 type  2   force =    -0.00002358   -0.00000635    0.00003942
     atom   23 type  2   force =    -0.00000014   -0.00000026   -0.00009692
     atom   24 type  2   force =     0.00076677    0.00021472   -0.00405744
     atom   25 type  1   force =     0.00000003   -0.00000003    0.00255968
     atom   26 type  1   force =     0.00000003   -0.00000000    0.00000968
     atom   27 type  2   force =     0.00000001    0.00000002   -0.00003387
     atom   28 type  2   force =    -0.00000000    0.00000001    0.00017171
     atom   29 type  2   force =    -0.00000000    0.00000001    0.00441402
     atom   30 type  2   force =     0.00000007    0.00000016    0.00009535
     atom   31 type  1   force =    -0.00000750   -0.00000717    0.00001638
     atom   32 type  1   force =     0.00052532    0.00001002   -0.00196373
     atom   33 type  2   force =    -0.00001513   -0.00001116   -0.00011095
     atom   34 type  2   force =    -0.00003388    0.00000308    0.00004317
     atom   35 type  2   force =    -0.00000129   -0.00000007   -0.00009434
     atom   36 type  2   force =     0.00026563   -0.00002579   -0.00430387
     atom   37 type  1   force =    -0.00000003    0.00000002    0.00255966
     atom   38 type  1   force =    -0.00000000   -0.00000001    0.00000992
     atom   39 type  2   force =     0.00000002    0.00000001   -0.00003387
     atom   40 type  2   force =    -0.00000001   -0.00000002    0.00017171
     atom   41 type  2   force =    -0.00000001   -0.00000002    0.00441412
     atom   42 type  2   force =     0.00000007    0.00000011    0.00009545
     atom   43 type  1   force =     0.00000043   -0.00001005   -0.00000031
     atom   44 type  1   force =     0.00008360    0.00004890   -0.00230049
     atom   45 type  2   force =     0.00000559   -0.00001086   -0.00007489
     atom   46 type  2   force =    -0.00001327   -0.00001684    0.00004640
     atom   47 type  2   force =    -0.00000045   -0.00000040   -0.00009349
     atom   48 type  2   force =    -0.00017728    0.00020086   -0.00423160
     atom   49 type  1   force =     0.00000002    0.00000006    0.00255975
     atom   50 type  1   force =    -0.00000006    0.00000001    0.00000999
     atom   51 type  2   force =    -0.00000003    0.00000000   -0.00003383
     atom   52 type  2   force =    -0.00000001    0.00000001    0.00017175
     atom   53 type  2   force =    -0.00000001    0.00000002    0.00441404
     atom   54 type  2   force =     0.00000001    0.00000000    0.00009561
     atom   55 type  1   force =     0.00000338   -0.00000920   -0.00002477
     atom   56 type  1   force =    -0.00008833    0.00025061   -0.00201240
     atom   57 type  2   force =    -0.00000959    0.00006055    0.00021001
     atom   58 type  2   force =    -0.00000741   -0.00000095    0.00004123
     atom   59 type  2   force =    -0.00000094   -0.00000028   -0.00009650
     atom   60 type  2   force =    -0.00008747    0.00042523   -0.00430783
[...]
     atom  181 type  1   force =    -0.00000007   -0.00000005    0.00255972
     atom  182 type  1   force =     0.00000004    0.00000002    0.00000976
     atom  183 type  2   force =     0.00000000   -0.00000002   -0.00003394
     atom  184 type  2   force =     0.00000000    0.00000001    0.00017175
     atom  185 type  2   force =     0.00000001   -0.00000001    0.00441405
     atom  186 type  2   force =     0.00000013    0.00000019    0.00009551
     atom  187 type  1   force =     0.00000869    0.00000800   -0.00002016
     atom  188 type  1   force =    -0.00041737   -0.00007764   -0.00199849
     atom  189 type  2   force =    -0.00005137   -0.00004487    0.00019987
     atom  190 type  2   force =     0.00002174    0.00000845    0.00004305
     atom  191 type  2   force =     0.00000118    0.00000013   -0.00009514
     atom  192 type  2   force =    -0.00030377   -0.00030963   -0.00428216
     atom  193 type  3   force =     0.00016033    0.00000454   -0.00629637
     atom  194 type  3   force =    -0.00007816    0.00045702   -0.00627340
     atom  195 type  3   force =    -0.00007572   -0.00048770   -0.00628174

     Total force =     0.002677     Total SCF correction =     0.000287
     SCF correction compared to forces is large: reduce conv_thr to get better values
     Energy error            =      2.2E-05 Ry
     Gradient error          =      7.9E-04 Ry/Bohr

     bfgs converged in  18 scf cycles and  17 bfgs steps
     (criteria: energy <  1.0E-04 Ry, force <  1.0E-03 Ry/Bohr)

     End of BFGS Geometry Optimization

     Final energy             =  -33329.5795224426 Ry

     File ./outdir/pwscf.bfgs deleted, as requested
Begin final coordinates

ATOMIC_POSITIONS (angstrom)
Mo            0.0000119917        1.8193638619       -9.1672481230    0   0   0
Mo            1.5756136568        0.9097075315       -3.0554901653    0   0   0
S             0.0000188998        1.8193822938       -4.6232556019    0   0   0
S             1.5756321638        0.9096773839       -7.6014065489    0   0   0
S             1.5756326175        0.9096785128      -10.7330757790    0   0   0
S             0.0000189190        1.8193860094       -1.4877129945    0   0   0
Mo           -0.0000662920        1.8210755003        3.0586161309
Mo            1.5708095413        0.9201393092        9.1756146848
S            -0.0026228503        1.8245909187        7.5906409796
S             1.5763031243        0.9119228485        4.6257780827
S             1.5752065835        0.9113527992        1.4901686488
S            -0.0047442301        1.8341021813       10.7384993674
Mo           -1.5756053507        4.5484193819       -9.1672481230    0   0   0
Mo            0.0000378379        3.6387394919       -3.0554952701    0   0   0
S            -1.5755913433        4.5484363582       -4.6232494962    0   0   0
S             0.0000148214        3.6387329039       -7.6014065489    0   0   0
S             0.0000152751        3.6387340328      -10.7330757790    0   0   0
S            -1.5755906502        4.5484413613       -1.4877305502    0   0   0
Mo           -1.5755173741        4.5500843749        3.0580316959
Mo           -0.0293753252        3.6381228886        9.1590154444
S            -1.5803178108        4.5688411728        7.5822700135
S             0.0002672133        3.6409175987        4.6263139188
S            -0.0000030942        3.6401743297        1.4904435320
S            -1.5972666432        4.5608360142       10.7266477835
Mo           -3.1512226931        7.2774749019       -9.1672481230    0   0   0
Mo           -1.5755910988        6.3678216792       -3.0555115988    0   0   0
S            -3.1512162438        7.2774954350       -4.6232578178    0   0   0
S            -1.5756025210        6.3677884239       -7.6014065489    0   0   0
S            -1.5756020673        6.3677895528      -10.7330757790    0   0   0
S            -3.1512127704        7.2774877076       -1.4877200710    0   0   0
Mo           -3.1509912232        7.2792655928        3.0575623729
Mo           -1.5834642985        6.3847114397        9.1677875656
S            -3.1422330413        7.2955862718        7.5864913522
S            -1.5753226517        6.3697477296        4.6253840305
S            -1.5749482352        6.3695368933        1.4902793319
S            -3.1587393738        7.2942263251       10.7289726759
Mo           -4.7268400355       10.0065304219       -9.1672481230    0   0   0
Mo           -3.1512405618        9.0968403586       -3.0554816746    0   0   0
S            -4.7268341792       10.0065523623       -4.6232463762    0   0   0
S            -3.1512198634        9.0968439439       -7.6014065489    0   0   0
S            -3.1512194097        9.0968450728      -10.7330757790    0   0   0
S            -4.7268370797       10.0065537885       -1.4877176751    0   0   0
Mo           -4.7269051228       10.0084297029        3.0580886387
Mo           -3.1525678034        9.1141335065        9.1587864324
S            -4.7277782744       10.0295928663        7.5925425649
S            -3.1511919077        9.0986021329        4.6254309064
S            -3.1510573993        9.0987451143        1.4901579044
S            -4.7205350599       10.0136119733       10.7371471888
Mo            3.1512517547        1.8193638619       -9.1672481230    0   0   0
Mo            4.7269020221        0.9097289540       -3.0554823951    0   0   0
S             3.1512612351        1.8193882564       -4.6232320683    0   0   0
S             4.7268719268        0.9096773839       -7.6014065489    0   0   0
S             4.7268723805        0.9096785128      -10.7330757790    0   0   0
S             3.1512592485        1.8193890201       -1.4877261251    0   0   0
Mo            3.1511635759        1.8213709362        3.0574082886
Mo            4.7288016533        0.9194820882        9.1757748404
S             3.1506681786        1.8597812252        7.6383786187
S             4.7260795766        0.9118800571        4.6259432758
S             4.7271384571        0.9111714694        1.4902463730
S             3.1537965733        1.7539241844       10.7974633714
[...]
Mo            4.7268792535       10.0065304219       -9.1672481230    0   0   0
Mo            6.3025111524        9.0968738021       -3.0554915260    0   0   0
S             4.7268840634       10.0065452125       -4.6232380477    0   0   0
S             6.3024994256        9.0968439439       -7.6014065489    0   0   0
S             6.3024998793        9.0968450728      -10.7330757790    0   0   0
S             4.7268847312       10.0065459141       -1.4877283294    0   0   0
Mo            4.7264521348       10.0081066563        3.0580006190
Mo            6.3136906232        9.1145382488        9.1670744698
S             4.7078171201       10.0126629506        7.6298740931
S             6.3019409385        9.0994118495        4.6259028351
S             6.3023057724        9.0982769011        1.4905089774
S             4.7987531201       10.0654481149       10.7911708154
Pd            1.6585978642        6.3941305232       12.2344335680
Pd            3.1320012994        3.7524676574       12.1253939245
Pd            3.0961069469        9.0193136777       12.1392207620
End final coordinates

     Writing all to output data dir ./outdir/pwscf.save/

     General routines

     Parallel routines

   This run was terminated on:  14:13:15   5Nov2023

   JOB DONE.
Application 11372291 resources: utime ~5591405s, stime ~59236s, Rss ~3518264, inblocks ~0, outblocks ~57624176