     Program PWSCF v.7.3 starts on  2Apr2024 at  7:33:20

     Waiting for input...
     Reading input from standard input
Warning: card &CELL ignored
Warning: card / ignored

     Current dimensions of program PWSCF are:
     Max number of different atomic species (ntypx) = 10
     Max number of k-points (npk) =  40000
     Max angular momentum in pseudopotentials (lmaxx) =  4
     file Mo.pbe-spn-kjpaw_psl.1.0.0.UPF: wavefunction(s)  4S 4D renormalized
     file S.pbe-n-kjpaw_psl.1.0.0.UPF: wavefunction(s)  3S 3P renormalized
     file Pt.pbe-spfn-kjpaw_psl.1.0.0.UPF: wavefunction(s)  5P 4F renormalized
     file Pd.pbe-spn-kjpaw_psl.1.0.0.UPF: wavefunction(s)  4S 5S 4D renormalized

     R & G space division:  proc/nbgrp/npool/nimage =      36
     Subspace diagonalization in iterative solution of the eigenvalue problem:
     one sub-group per band group will be used

     Using Slab Decomposition

     bravais-lattice index     =            0
     lattice parameter (alat)  =      23.8395  a.u.
     unit-cell volume          =   28182.8498 (a.u.)^3
     number of atoms/cell      =          147
     number of atomic types    =            4
     number of electrons       =      1316.00
     number of Kohn-Sham states=          790
     kinetic-energy cutoff     =      77.0000  Ry
     charge density cutoff     =     539.0000  Ry
     scf convergence threshold =      1.0E-06
     mixing beta               =       0.2000
     number of iterations used =            8  plain     mixing
     energy convergence thresh.=      1.0E-04
     force convergence thresh. =      1.0E-03
     Exchange-correlation= SLA  PW   PBX  PBC
                           (   1   4   3   4   0   0   0)
     nstep                     =         1000

     Effective Screening Medium Method
     Boundary Conditions: Vacuum-Slab-Vacuum
     total charge in unit cell        =   0.0000
     grid points for fit at edges     =        4

     celldm(1)=  23.839504  celldm(2)=   0.000000  celldm(3)=   0.000000
     celldm(4)=   0.000000  celldm(5)=   0.000000  celldm(6)=   0.000000

     crystal axes: (cart. coord. in units of alat)
               a(1) = (   1.000000   0.000000   0.000000 )
               a(2) = (  -0.500001   0.866026   0.000000 )
               a(3) = (   0.000000   0.000000   2.401941 )

     reciprocal axes: (cart. coord. in units 2 pi/alat)
               b(1) = (  1.000000  0.577351  0.000000 )
               b(2) = (  0.000000  1.154700  0.000000 )
               b(3) = (  0.000000  0.000000  0.416330 )

     PseudoPot. # 1 for Mo read from file:
     ./pseudo/Mo.pbe-spn-kjpaw_psl.1.0.0.UPF
     MD5 check sum: 317bf72632116215fd98f72de1686f13
     Pseudo is Projector augmented-wave + core cor, Zval = 14.0
     Generated using 'atomic' code by A. Dal Corso  v.7.2
     Shape of augmentation charge: PSQ
     Using radial grid of 1229 points,  6 beta functions with:
                l(1) =   0
                l(2) =   0
                l(3) =   1
                l(4) =   1
                l(5) =   2
                l(6) =   2
     Q(r) pseudized with 0 coefficients

     PseudoPot. # 2 for S  read from file:
     ./pseudo/S.pbe-n-kjpaw_psl.1.0.0.UPF
     MD5 check sum: 8b7b5302570d38d5e87fed6a1065abda
     Pseudo is Projector augmented-wave + core cor, Zval =  6.0
     Generated using 'atomic' code by A. Dal Corso  v.7.2
     Shape of augmentation charge: PSQ
     Using radial grid of 1151 points,  6 beta functions with:
                l(1) =   0
                l(2) =   0
                l(3) =   1
                l(4) =   1
                l(5) =   2
                l(6) =   2
     Q(r) pseudized with 0 coefficients

     PseudoPot. # 3 for Pt read from file:
     ./pseudo/Pt.pbe-spfn-kjpaw_psl.1.0.0.UPF
     MD5 check sum: 620096ebf4e6ebacc94de60fd67efcb5
     Pseudo is Projector augmented-wave + core cor, Zval = 32.0
     Generated using 'atomic' code by A. Dal Corso  v.7.2
     Shape of augmentation charge: PSQ
     Using radial grid of 1277 points,  8 beta functions with:
                l(1) =   0
                l(2) =   0
                l(3) =   1
                l(4) =   1
                l(5) =   2
                l(6) =   2
                l(7) =   3
                l(8) =   3
     Q(r) pseudized with 0 coefficients

     PseudoPot. # 4 for Pd read from file:
     ./pseudo/Pd.pbe-spn-kjpaw_psl.1.0.0.UPF
     MD5 check sum: a60571a671f2502b8a6a4569d20a6edb
     Pseudo is Projector augmented-wave + core cor, Zval = 18.0
     Generated using 'atomic' code by A. Dal Corso  v.7.2
     Shape of augmentation charge: PSQ
     Using radial grid of 1235 points,  6 beta functions with:
                l(1) =   0
                l(2) =   0
                l(3) =   1
                l(4) =   1
                l(5) =   2
                l(6) =   2
     Q(r) pseudized with 0 coefficients

     atomic species   valence    mass     pseudopotential
     Mo               14.00    95.95000     Mo( 1.00)
     S                 6.00    32.06000     S ( 1.00)
     Pt               32.00   195.08400     Pt( 1.00)
     Pd               18.00   106.42000     Pd( 1.00)

     No symmetry found

   Cartesian axes

     site n.     atom                  positions (alat units)
         1        Mo     tau(   1) = (   0.1246074   0.2157200   0.4826345  )
         2        Mo     tau(   2) = (   0.1250004   0.0721694  -0.4825273  )
         3        Mo     tau(   3) = (   0.0000068   0.1443549  -0.0000406  )
         4        S      tau(   4) = (   0.0000004   0.0000006  -0.6064556  )
         5        S      tau(   5) = (   0.1249873   0.0722031  -0.1241756  )
         6        S      tau(   6) = (   0.0000973   0.1450650   0.3573519  )
         7        S      tau(   7) = (   0.0000004   0.0000005  -0.3584711  )
         8        S      tau(   8) = (   0.1249847   0.0720950   0.1240801  )
         9        S      tau(   9) = (  -0.0005301   0.1434694   0.6062599  )
        10        Mo     tau(  10) = (  -0.0009156   0.4330317   0.4832560  )
        11        Mo     tau(  11) = (   0.0000001   0.2886759  -0.4825273  )
        12        Mo     tau(  12) = (  -0.1249829   0.3608507   0.0000027  )
        13        S      tau(  13) = (  -0.1249999   0.2165071  -0.6064556  )
        14        S      tau(  14) = (   0.0000128   0.2886930  -0.1241006  )
        15        S      tau(  15) = (  -0.1248837   0.3612581   0.3580377  )
        16        S      tau(  16) = (  -0.1249998   0.2165070  -0.3584711  )
        17        S      tau(  17) = (   0.0000764   0.2887257   0.1242499  )
        18        S      tau(  18) = (  -0.1253220   0.3603286   0.6073134  )
        19        Mo     tau(  19) = (  -0.1249684   0.6493789   0.4818062  )
        20        Mo     tau(  20) = (  -0.1250002   0.5051824  -0.4825273  )
        21        Mo     tau(  21) = (  -0.2500040   0.5773207  -0.0001409  )
        22        S      tau(  22) = (  -0.2500002   0.4330136  -0.6064556  )
        23        S      tau(  23) = (  -0.1249903   0.5051158  -0.1241917  )
        24        S      tau(  24) = (  -0.2499555   0.5769406   0.3578597  )
        25        S      tau(  25) = (  -0.2500001   0.4330135  -0.3584711  )
        26        S      tau(  26) = (  -0.1249930   0.5052458   0.1241101  )
        27        S      tau(  27) = (  -0.2497899   0.5778453   0.6063597  )
        28        Mo     tau(  28) = (   0.2497834  -0.0005160   0.4806710  )
        29        Mo     tau(  29) = (  -0.2500004   0.7216889  -0.4825273  )
        30        Mo     tau(  30) = (  -0.3750188   0.7938286  -0.0001549  )
        31        S      tau(  31) = (  -0.3750004   0.6495201  -0.6064556  )
        32        S      tau(  32) = (  -0.2500074   0.7216649  -0.1242513  )
        33        S      tau(  33) = (  -0.3752234   0.7935039   0.3566636  )
        34        S      tau(  34) = (  -0.3750004   0.6495200  -0.3584711  )
        35        S      tau(  35) = (  -0.2499996   0.7216607   0.1240200  )
        36        S      tau(  36) = (  -0.3746819   0.7948899   0.6057341  )
        37        Mo     tau(  37) = (   0.3750034   0.2123618   0.4807886  )
        38        Mo     tau(  38) = (   0.3750004   0.0721694  -0.4825273  )
        39        Mo     tau(  39) = (   0.2499981   0.1443415  -0.0000413  )
        40        S      tau(  40) = (   0.2500004   0.0000006  -0.6064556  )
        41        S      tau(  41) = (   0.3750280   0.0722231  -0.1241519  )
        42        S      tau(  42) = (   0.2489233   0.1437373   0.3564531  )
        43        S      tau(  43) = (   0.2500004   0.0000005  -0.3584711  )
        44        S      tau(  44) = (   0.3749877   0.0720947   0.1241383  )
        45        S      tau(  45) = (   0.2497122   0.1423104   0.6055821  )
        46        Mo     tau(  46) = (   0.2490774   0.4329018   0.4862977  )
        47        Mo     tau(  47) = (   0.2500001   0.2886759  -0.4825273  )
        48        Mo     tau(  48) = (   0.1250319   0.3608540  -0.0000126  )
        49        S      tau(  49) = (   0.1250001   0.2165071  -0.6064556  )
        50        S      tau(  50) = (   0.2500259   0.2886851  -0.1240979  )
        51        S      tau(  51) = (   0.1263042   0.3620125   0.3614359  )
        52        S      tau(  52) = (   0.1250002   0.2165070  -0.3584711  )
        53        S      tau(  53) = (   0.2500168   0.2886898   0.1242904  )
        54        S      tau(  54) = (   0.1173694   0.3566575   0.6132890  )
        55        Mo     tau(  55) = (   0.1240062   0.6506471   0.4823696  )
        56        Mo     tau(  56) = (   0.1249998   0.5051824  -0.4825273  )
        57        Mo     tau(  57) = (   0.0000191   0.5773226  -0.0001255  )
        58        S      tau(  58) = (  -0.0000002   0.4330136  -0.6064556  )
        59        S      tau(  59) = (   0.1250359   0.5051398  -0.1241676  )
        60        S      tau(  60) = (   0.0000697   0.5768181   0.3580317  )
[...]
       133        S      tau( 133) = (   0.4999999   0.4330135  -0.3584711  )
       134        S      tau( 134) = (   0.6250095   0.5052263   0.1241915  )
       135        S      tau( 135) = (   0.5006407   0.5846211   0.6091832  )
       136        Mo     tau( 136) = (   0.0000410   0.0004185   0.4809769  )
       137        Mo     tau( 137) = (   0.4999996   0.7216889  -0.4825273  )
       138        Mo     tau( 138) = (   0.3750036   0.7938273  -0.0000272  )
       139        S      tau( 139) = (   0.3749996   0.6495201  -0.6064556  )
       140        S      tau( 140) = (   0.4999499   0.7216482  -0.1241729  )
       141        S      tau( 141) = (   0.3750006   0.7941054   0.3569117  )
       142        S      tau( 142) = (   0.3749996   0.6495200  -0.3584711  )
       143        S      tau( 143) = (   0.5000314   0.7216102   0.1241515  )
       144        S      tau( 144) = (   0.3752329   0.7966920   0.6062052  )
       145        Pt     tau( 145) = (   0.2580795   0.4348292   0.7095693  )
       146        Pd     tau( 146) = (   0.4899479   0.4358638   0.7204770  )
       147        Pd     tau( 147) = (  -0.3742275   0.6505581   0.7360097  )

     DFT-D3 Dispersion Correction (3-body terms):
       Reference C6 values for interpolation:

[...]
   -40.6089 -40.6081 -40.6011 -40.5991 -40.5956 -40.5898 -40.5897 -40.5743
   -40.5730 -40.5728 -40.5691 -40.5643 -40.5609 -40.5425 -40.5424 -40.5365
   -40.5307 -40.5300 -40.5223 -40.5202 -40.5054 -40.5024 -40.4900 -40.4796
   -40.4661 -40.4535 -40.4386 -20.0179 -19.8748 -19.8578 -19.7814 -19.6983
   -19.6584 -19.5163 -19.4515 -19.4224 -19.3986 -19.2727 -19.2617 -19.0248
   -18.9440 -18.8150 -18.7701 -18.7377 -18.7316 -18.7251 -18.7241 -18.7136
   -18.6953 -18.6334 -18.6118 -18.6090 -18.5965 -18.5902 -18.5792 -18.5535
   -18.5411 -18.5014 -18.4802 -18.4759 -18.4463 -18.4383 -18.4157 -18.4085
   -18.3874 -18.3660 -18.3640 -18.3060 -18.2775 -18.2705 -18.2420 -18.2303
   -18.2219 -18.1942 -18.1616 -18.1478 -18.1462 -18.1161 -18.1157 -18.1156
   -18.1154 -18.1147 -18.1024 -18.0835 -18.0659 -18.0585 -18.0438 -18.0400
   -18.0348 -18.0315 -18.0302 -18.0141 -18.0028 -17.9894 -17.9824 -17.9766
   -17.9590 -17.9411 -17.9342 -17.9321 -17.9297 -17.9161 -17.9112 -17.8777
   -17.8726 -17.8674 -17.8524 -17.8522 -17.8521 -17.8209 -17.8108 -17.8051
   -17.7927 -17.7923 -17.7849 -17.7772 -17.7758 -17.7738 -17.7697 -17.7337
   -17.7323 -17.6809 -17.6698 -12.0044 -11.8649 -11.7576 -11.6822 -11.6568
   -11.5556 -11.5112 -11.4675 -11.4609 -11.4594 -11.4583 -11.4432 -11.4356
   -11.4250 -11.3886 -11.3698 -11.3638 -11.3624 -11.3536 -11.3304 -11.3140
   -11.3033 -11.2928 -11.2723 -11.2596 -11.2451 -11.2450 -11.2404 -11.2021
   -11.1996 -11.1870 -11.1812 -11.1461 -11.1451 -11.1402 -11.1043 -11.0564
   -11.0409 -10.9939 -10.9771 -10.9618 -10.9463 -10.9362 -10.9165 -10.9081
   -10.8978 -10.8923 -10.8722 -10.8656 -10.8515 -10.8481 -10.8286 -10.8231
   -10.8189 -10.8181 -10.8166 -10.8099 -10.8066 -10.8037 -10.7711 -10.7546
   -10.7517 -10.7465 -10.7353 -10.6890 -10.6243 -10.5907 -10.5548 -10.5223
   -10.4980 -10.4780 -10.4343 -10.3702 -10.3165 -10.2933 -10.2368 -10.1567
   -10.1255 -10.1130 -10.1015 -10.0812 -10.0672 -10.0513 -10.0158  -9.9987
    -9.9669  -9.9587  -9.9421  -9.9302  -9.9253  -9.9219  -9.9136  -9.9058
    -9.8878  -9.8841  -9.8715  -9.8678  -9.8487  -9.8079  -9.7862  -9.7755
    -9.7552  -9.7450  -9.7301  -9.7053  -9.7025  -9.6994  -9.6957  -9.6854
    -9.6832  -9.6640  -9.6552  -9.6432  -9.6276  -9.6111  -9.6032  -9.5702
    -9.5537  -9.5428  -9.5287  -9.5166  -9.5109  -9.4817  -9.4639  -9.4602
    -9.4580  -9.3819  -9.3596  -9.3427  -9.3138  -9.2897  -9.2535  -9.2051
    -9.1979  -9.1854  -9.1715  -9.1580  -9.1526  -9.1366  -9.1306  -9.1059
    -9.0986  -9.0911  -9.0767  -9.0528  -9.0412  -9.0352  -9.0287  -9.0208
    -9.0105  -8.9893  -8.9777  -8.9677  -8.9564  -8.9516  -8.9472  -8.9350
    -8.9291  -8.9214  -8.9189  -8.9092  -8.9018  -8.8850  -8.8710  -8.8630
    -8.8503  -8.8467  -8.8446  -8.8387  -8.8278  -8.8272  -8.8195  -8.8180
[...]
    -3.7598  -3.7504  -3.7166  -3.6819  -3.6197  -3.5984  -3.5924  -3.5864
    -3.5814  -3.5780  -3.5676  -3.5673  -3.5579  -3.5394  -3.5181  -3.5054
    -3.4917  -3.4892  -3.4790  -3.4724  -3.4643  -3.4600  -3.4586  -3.4461
    -3.4167  -3.4094  -3.3912  -3.3753  -3.3527  -3.3509  -3.3351  -3.3346
    -3.3335  -3.3140  -3.3046  -3.3012  -3.2992  -3.2929  -3.2685  -3.2588
    -3.2585  -3.2580  -3.2567  -3.2447  -3.2281  -3.2194  -3.2118  -3.2048
    -3.1975  -3.1929  -3.1842  -3.1803  -3.1699  -3.1680  -3.1504  -3.1437
    -3.1257  -3.1052  -3.1006  -3.0776  -3.0553  -3.0528  -3.0357  -3.0211
    -3.0153  -3.0123  -2.9966  -2.9956  -2.9953  -2.9947  -2.9682  -2.9515
    -2.9465  -2.9454  -2.9391  -2.9310  -2.9207  -2.9093  -2.9056  -2.9015
    -2.8996  -2.8920  -2.8883  -2.8817  -2.8710  -2.8569  -2.8431  -2.8362
    -2.8259  -2.8142  -2.8100  -2.7899  -2.7889  -2.7770  -2.7405  -2.7234
    -2.7009  -2.6951  -2.6501  -2.6452  -2.6334  -2.6306  -2.6233  -2.6113
    -2.5531  -2.5488  -2.5133  -2.5060  -2.4879  -2.4835  -2.4725  -2.4526
    -2.4174  -2.3831  -2.3538  -2.3459  -2.3114  -2.2917

     the Fermi energy is    -4.6347 ev

!    total energy              =  -26543.77073671 Ry
     total all-electron energy =   -522376.367044 Ry
     estimated scf accuracy    <          5.6E-09 Ry
     smearing contrib. (-TS)   =      -0.00000001 Ry
     internal energy E=F+TS    =  -26543.77073669 Ry

     The total energy is F=E-TS. E is the sum of the following terms:
     one-electron contribution =  511113.56209283 Ry
     hartree contribution      = -255701.34598106 Ry
     xc contribution           =   -1565.68375111 Ry
     ewald contribution        = -263942.29358622 Ry
     DFT-D3 Dispersion         =      -4.05927071 Ry
     one-center paw contrib.   =  -16443.95024042 Ry

     convergence has been achieved in  10 iterations

     negative rho (up, down):  9.691E-04 0.000E+00

     Forces acting on atoms (cartesian axes, Ry/au):

     atom    1 type  1   force =    -0.00003181    0.00005560   -0.00003919
     atom    2 type  1   force =    -0.00000071    0.00000060    0.00190124
     atom    3 type  1   force =     0.00000534   -0.00000551   -0.00003543
     atom    4 type  2   force =    -0.00000046   -0.00000022   -0.00328055
     atom    5 type  2   force =     0.00000345    0.00001060   -0.00000806
     atom    6 type  2   force =    -0.00013348    0.00017754   -0.00007595
     atom    7 type  2   force =     0.00000626   -0.00000186    0.00150565
     atom    8 type  2   force =    -0.00001298    0.00000426   -0.00000078
     atom    9 type  2   force =    -0.00002909    0.00005260    0.00005906
     atom   10 type  1   force =     0.00006388   -0.00003500   -0.00012890
     atom   11 type  1   force =    -0.00000040   -0.00000020    0.00190027
     atom   12 type  1   force =    -0.00000967   -0.00000260   -0.00002813
     atom   13 type  2   force =    -0.00000042   -0.00000063   -0.00328058
     atom   14 type  2   force =     0.00003550    0.00001532   -0.00000186
     atom   15 type  2   force =     0.00009099   -0.00016436   -0.00007435
     atom   16 type  2   force =    -0.00000185    0.00000146    0.00150993
     atom   17 type  2   force =    -0.00003989   -0.00002206   -0.00001562
     atom   18 type  2   force =    -0.00001489    0.00009283   -0.00006205
     atom   19 type  1   force =    -0.00015808   -0.00017475    0.00013723
     atom   20 type  1   force =    -0.00000021   -0.00000152    0.00189854
     atom   21 type  1   force =     0.00002831   -0.00000207    0.00000103
     atom   22 type  2   force =    -0.00000019   -0.00000033   -0.00328085
     atom   23 type  2   force =     0.00002453    0.00001378   -0.00000382
     atom   24 type  2   force =     0.00059429   -0.00030136   -0.00001805
     atom   25 type  2   force =    -0.00000354    0.00000322    0.00149411
     atom   26 type  2   force =    -0.00000863   -0.00001528    0.00000464
     atom   27 type  2   force =    -0.00013811    0.00032063    0.00023331
     atom   28 type  1   force =    -0.00014096   -0.00000123    0.00008895
     atom   29 type  1   force =    -0.00000099    0.00000010    0.00189988
     atom   30 type  1   force =    -0.00000085    0.00000690   -0.00000795
     atom   31 type  2   force =    -0.00000065   -0.00000011   -0.00328019
     atom   32 type  2   force =     0.00000486    0.00000725   -0.00001040
     atom   33 type  2   force =    -0.00003590    0.00076249   -0.00001245
     atom   34 type  2   force =    -0.00000270   -0.00000317    0.00150550
     atom   35 type  2   force =    -0.00001128   -0.00000605   -0.00000690
     atom   36 type  2   force =     0.00020139   -0.00020756    0.00040030
     atom   37 type  1   force =     0.00000175    0.00001087   -0.00020595
     atom   38 type  1   force =    -0.00000092    0.00000113    0.00189817
     atom   39 type  1   force =    -0.00001045    0.00000261   -0.00000587
     atom   40 type  2   force =    -0.00000079   -0.00000021   -0.00328019
     atom   41 type  2   force =     0.00001716    0.00000447    0.00000441
     atom   42 type  2   force =     0.00018182    0.00054577   -0.00011481
     atom   43 type  2   force =    -0.00000054    0.00000323    0.00150629
     atom   44 type  2   force =     0.00000466    0.00001151   -0.00000547
     atom   45 type  2   force =     0.00002624    0.00017157   -0.00006518
     atom   46 type  1   force =    -0.00006202   -0.00011326   -0.00006412
     atom   47 type  1   force =    -0.00000029   -0.00000017    0.00189652
     atom   48 type  1   force =     0.00000861   -0.00000753    0.00004904
     atom   49 type  2   force =    -0.00000072   -0.00000048   -0.00328007
     atom   50 type  2   force =    -0.00001883    0.00002482    0.00002822
     atom   51 type  2   force =     0.00003577   -0.00007663    0.00007976
     atom   52 type  2   force =     0.00000207    0.00000621    0.00151491
     atom   53 type  2   force =     0.00001420   -0.00001555   -0.00000254
     atom   54 type  2   force =     0.00003358    0.00000804   -0.00022188
     atom   55 type  1   force =     0.00016634   -0.00001390   -0.00002529
     atom   56 type  1   force =     0.00000004   -0.00000160    0.00189959
     atom   57 type  1   force =     0.00000306   -0.00000251    0.00002556
     atom   58 type  2   force =    -0.00000048   -0.00000056   -0.00328020
     atom   59 type  2   force =     0.00000779   -0.00001093    0.00004118
     atom   60 type  2   force =     0.00032874   -0.00009686   -0.00018411
[...]
     atom  133 type  2   force =    -0.00000501   -0.00000487    0.00150208
     atom  134 type  2   force =    -0.00000162   -0.00000086   -0.00001581
     atom  135 type  2   force =    -0.00055195   -0.00066838   -0.00053660
     atom  136 type  1   force =     0.00020212   -0.00014349    0.00023612
     atom  137 type  1   force =    -0.00000132   -0.00000091    0.00189855
     atom  138 type  1   force =    -0.00000525   -0.00000411    0.00002731
     atom  139 type  2   force =    -0.00000088   -0.00000013   -0.00328020
     atom  140 type  2   force =    -0.00001084   -0.00000907   -0.00000832
     atom  141 type  2   force =    -0.00023093   -0.00001811   -0.00010296
     atom  142 type  2   force =    -0.00000077   -0.00001082    0.00150174
     atom  143 type  2   force =     0.00000405   -0.00001040   -0.00002874
     atom  144 type  2   force =    -0.00001955   -0.00018762   -0.00012563
     atom  145 type  3   force =    -0.00031674   -0.00015366    0.00006278
     atom  146 type  4   force =    -0.00041417    0.00091110    0.00006017
     atom  147 type  4   force =    -0.00068025   -0.00053404    0.00038779

     Total force =     0.002980     Total SCF correction =     0.000259
     Energy error            =      1.3E-05 Ry
     Gradient error          =      9.1E-04 Ry/Bohr

     bfgs converged in  21 scf cycles and  20 bfgs steps
     (criteria: energy <  1.0E-04 Ry, force <  1.0E-03 Ry/Bohr)

     End of BFGS Geometry Optimization

     Final energy             =  -26543.7707367079 Ry

     File ./outdir/pwscf.bfgs deleted, as requested
Begin final coordinates

ATOMIC_POSITIONS (angstrom)
Mo               1.5770542509        2.7240197599        6.0966016704
Mo               1.5769197498        0.9104407117       -6.0872367793    0   0   0
Mo               0.0003460690        1.8209797132        0.0001009585
S                0.0000044503        0.0000077495       -7.6506323570    0   0   0
S                1.5770827772        0.9105585623       -1.5655410223
S                0.0103163338        1.8279241102        4.5119296646
S                0.0000053241        0.0000068460       -4.5222282367    0   0   0
S                1.5766686526        0.9085788413        1.5669738344
S               -0.0102099395        1.8205647283        7.6547520049
Mo              -0.0056362244        5.4647581886        6.0969812329
Mo               0.0000011799        3.6417399547       -6.0872367793    0   0   0
Mo              -1.5766020851        4.5523470008        0.0001977915
S               -1.5769141197        2.7313069925       -7.6506323570    0   0   0
S                0.0002574015        3.6417493008       -1.5653101712
S               -1.5658736186        4.5569229113        4.5134322926
S               -1.5769132459        2.7313060890       -4.5222282367    0   0   0
S                0.0011037513        3.6423311705        1.5677518606
S               -1.5709780521        4.5355855470        7.6610540236
Mo              -1.5648885399        8.1947125591        6.0831403349
Mo              -1.5769173901        6.3730391977       -6.0872367793    0   0   0
Mo              -3.1542241114        7.2832234137       -0.0011140860
S               -3.1538326896        5.4626062355       -7.6506323570    0   0   0
S               -1.5770268377        6.3725142549       -1.5660843904
S               -3.1688434921        7.2885831564        4.5496286689
S               -3.1538318159        5.4626053320       -4.5222282367    0   0   0
S               -1.5779278635        6.3738429235        1.5667678619
S               -3.0723167748        7.2392448551        7.6901552215
Mo               3.1560697519        0.0019997271        6.0852308818
Mo              -3.1538359601        9.1043384407       -6.0872367793    0   0   0
Mo              -4.7308647266       10.0142054836       -0.0010450485
S               -4.7307512596        8.1939054785       -7.6506323570    0   0   0
S               -3.1538263135        9.1041495776       -1.5666017874
S               -4.7298015436        9.9920769676        4.5449489303
S               -4.7307503859        8.1939045750       -4.5222282367    0   0   0
S               -3.1539509451        9.1038015260        1.5660332211
S               -4.7321673195       10.0970438362        7.7027502101
Mo               4.7312530971        2.6871933519        6.0664839493
Mo               4.7307503218        0.9104407117       -6.0872367793    0   0   0
Mo               3.1538040306        1.8205420177        0.0005906148
S                3.1538350223        0.0000077495       -7.6506323570    0   0   0
S                4.7306499308        0.9108039653       -1.5655232506
S                3.1391465363        1.8080576335        4.5062996553
S                3.1538358961        0.0000068460       -4.5222282367    0   0   0
S                4.7309608454        0.9096446543        1.5669197392
S                3.1598030181        1.8131508408        7.6530092517
Mo               3.1552161997        5.4637712012        6.1265649933
Mo               3.1538317519        3.6417399547       -6.0872367793    0   0   0
Mo               1.5772955588        4.5520904491       -0.0000959123
S                1.5769164523        2.7313069925       -7.6506323570    0   0   0
S                3.1543553161        3.6413652061       -1.5649230384
S                1.5985679578        4.5649831049        4.5621362990
S                1.5769173261        2.7313060890       -4.5222282367    0   0   0
S                3.1536678065        3.6416309408        1.5683125231
S                1.4984307105        4.5103807405        7.7376959992
Mo               1.5580839014        8.2080122819        6.0706370468
Mo               1.5769131819        6.3730391977       -6.0872367793    0   0   0
Mo              -0.0001920445        7.2831188464       -0.0007250987
S               -0.0000021176        5.4626062355       -7.6506323570    0   0   0
S                1.5772023318        6.3726980713       -1.5658475281
S               -0.0079569609        7.2748806958        4.5093861700
[...]
S                6.3076599001        5.4626053320       -4.5222282367    0   0   0
S                7.8846809037        6.3733648807        1.5672759352
S                6.2038322187        7.2983502794        7.6566159624
Mo              -0.0039829708        0.0124039265        6.0795705671
Mo               6.3076557559        9.1043384407       -6.0872367793    0   0   0
Mo               4.7309343699       10.0146681735       -0.0002410197
S                4.7307404564        8.1939054785       -7.6506323570    0   0   0
S                6.3073293425        9.1039362582       -1.5659908269
S                4.7327168493       10.0342239497        4.4920978904
S                4.7307413301        8.1939045750       -4.5222282367    0   0   0
S                6.3080076287        9.1040113784        1.5669573832
S                4.7227391015       10.0452931979        7.6393046024
Pt               3.2915341687        5.4910755424        8.9368527511
Pd               6.2098238220        5.5659903782        9.2026176250
Pd              -4.7968278147        8.0941123417        9.0399755261
End final coordinates

     Writing all to output data dir ./outdir/pwscf.save/ :
     XML data file, charge density, pseudopotentials, collected wavefunctions

     General routines

     Parallel routines

   This run was terminated on:   8:13: 2   3Apr2024

   JOB DONE.