     Program PWSCF v.7.3 starts on 18Apr2024 at 12:30: 8

     Waiting for input...
     Reading input from standard input
Warning: card &CELL ignored
Warning: card / ignored

     Current dimensions of program PWSCF are:
     Max number of different atomic species (ntypx) = 10
     Max number of k-points (npk) =  40000
     Max angular momentum in pseudopotentials (lmaxx) =  4
     file Mo.pbe-spn-kjpaw_psl.1.0.0.UPF: wavefunction(s)  4S 4D renormalized
     file S.pbe-n-kjpaw_psl.1.0.0.UPF: wavefunction(s)  3S 3P renormalized
     file Pt.pbe-spfn-kjpaw_psl.1.0.0.UPF: wavefunction(s)  5P 4F renormalized
     file Pd.pbe-spn-kjpaw_psl.1.0.0.UPF: wavefunction(s)  4S 5S 4D renormalized

     R & G space division:  proc/nbgrp/npool/nimage =      36
     Subspace diagonalization in iterative solution of the eigenvalue problem:
     one sub-group per band group will be used

     Using Slab Decomposition

     bravais-lattice index     =            0
     lattice parameter (alat)  =      23.8395  a.u.
     unit-cell volume          =   28182.8498 (a.u.)^3
     number of atoms/cell      =          147
     number of atomic types    =            4
     number of electrons       =      1316.00
     number of Kohn-Sham states=          790
     kinetic-energy cutoff     =      77.0000  Ry
     charge density cutoff     =     539.0000  Ry
     scf convergence threshold =      1.0E-06
     mixing beta               =       0.2000
     number of iterations used =            8  plain     mixing
     energy convergence thresh.=      1.0E-04
     force convergence thresh. =      1.0E-03
     Exchange-correlation= SLA  PW   PBX  PBC
                           (   1   4   3   4   0   0   0)
     nstep                     =         1000

     Effective Screening Medium Method
     Boundary Conditions: Vacuum-Slab-Vacuum
     total charge in unit cell        =   0.0000
     grid points for fit at edges     =        4

     celldm(1)=  23.839504  celldm(2)=   0.000000  celldm(3)=   0.000000
     celldm(4)=   0.000000  celldm(5)=   0.000000  celldm(6)=   0.000000

     crystal axes: (cart. coord. in units of alat)
               a(1) = (   1.000000   0.000000   0.000000 )
               a(2) = (  -0.500001   0.866026   0.000000 )
               a(3) = (   0.000000   0.000000   2.401941 )

     reciprocal axes: (cart. coord. in units 2 pi/alat)
               b(1) = (  1.000000  0.577351  0.000000 )
               b(2) = (  0.000000  1.154700  0.000000 )
               b(3) = (  0.000000  0.000000  0.416330 )

     PseudoPot. # 1 for Mo read from file:
     ./pseudo/Mo.pbe-spn-kjpaw_psl.1.0.0.UPF
     MD5 check sum: 317bf72632116215fd98f72de1686f13
     Pseudo is Projector augmented-wave + core cor, Zval = 14.0
     Generated using 'atomic' code by A. Dal Corso  v.7.2
     Shape of augmentation charge: PSQ
     Using radial grid of 1229 points,  6 beta functions with:
                l(1) =   0
                l(2) =   0
                l(3) =   1
                l(4) =   1
                l(5) =   2
                l(6) =   2
     Q(r) pseudized with 0 coefficients

     PseudoPot. # 2 for S  read from file:
     ./pseudo/S.pbe-n-kjpaw_psl.1.0.0.UPF
     MD5 check sum: 8b7b5302570d38d5e87fed6a1065abda
     Pseudo is Projector augmented-wave + core cor, Zval =  6.0
     Generated using 'atomic' code by A. Dal Corso  v.7.2
     Shape of augmentation charge: PSQ
     Using radial grid of 1151 points,  6 beta functions with:
                l(1) =   0
                l(2) =   0
                l(3) =   1
                l(4) =   1
                l(5) =   2
                l(6) =   2
     Q(r) pseudized with 0 coefficients

     PseudoPot. # 3 for Pt read from file:
     ./pseudo/Pt.pbe-spfn-kjpaw_psl.1.0.0.UPF
     MD5 check sum: 620096ebf4e6ebacc94de60fd67efcb5
     Pseudo is Projector augmented-wave + core cor, Zval = 32.0
     Generated using 'atomic' code by A. Dal Corso  v.7.2
     Shape of augmentation charge: PSQ
     Using radial grid of 1277 points,  8 beta functions with:
                l(1) =   0
                l(2) =   0
                l(3) =   1
                l(4) =   1
                l(5) =   2
                l(6) =   2
                l(7) =   3
                l(8) =   3
     Q(r) pseudized with 0 coefficients

     PseudoPot. # 4 for Pd read from file:
     ./pseudo/Pd.pbe-spn-kjpaw_psl.1.0.0.UPF
     MD5 check sum: a60571a671f2502b8a6a4569d20a6edb
     Pseudo is Projector augmented-wave + core cor, Zval = 18.0
     Generated using 'atomic' code by A. Dal Corso  v.7.2
     Shape of augmentation charge: PSQ
     Using radial grid of 1235 points,  6 beta functions with:
                l(1) =   0
                l(2) =   0
                l(3) =   1
                l(4) =   1
                l(5) =   2
                l(6) =   2
     Q(r) pseudized with 0 coefficients

     atomic species   valence    mass     pseudopotential
     Mo               14.00    95.95000     Mo( 1.00)
     S                 6.00    32.06000     S ( 1.00)
     Pt               32.00   195.08400     Pt( 1.00)
     Pd               18.00   106.42000     Pd( 1.00)

     No symmetry found

   Cartesian axes

     site n.     atom                  positions (alat units)
         1        Mo     tau(   1) = (   0.1246074   0.2157200   0.4826345  )
         2        Mo     tau(   2) = (   0.1250004   0.0721694  -0.4825273  )
         3        Mo     tau(   3) = (   0.0000068   0.1443549  -0.0000406  )
         4        S      tau(   4) = (   0.0000004   0.0000006  -0.6064556  )
         5        S      tau(   5) = (   0.1249873   0.0722031  -0.1241756  )
         6        S      tau(   6) = (   0.0000973   0.1450650   0.3573519  )
         7        S      tau(   7) = (   0.0000004   0.0000005  -0.3584711  )
         8        S      tau(   8) = (   0.1249847   0.0720950   0.1240801  )
         9        S      tau(   9) = (  -0.0005301   0.1434694   0.6062599  )
        10        Mo     tau(  10) = (  -0.0009156   0.4330317   0.4832560  )
        11        Mo     tau(  11) = (   0.0000001   0.2886759  -0.4825273  )
        12        Mo     tau(  12) = (  -0.1249829   0.3608507   0.0000027  )
        13        S      tau(  13) = (  -0.1249999   0.2165071  -0.6064556  )
        14        S      tau(  14) = (   0.0000128   0.2886930  -0.1241006  )
        15        S      tau(  15) = (  -0.1248837   0.3612581   0.3580377  )
        16        S      tau(  16) = (  -0.1249998   0.2165070  -0.3584711  )
        17        S      tau(  17) = (   0.0000764   0.2887257   0.1242499  )
        18        S      tau(  18) = (  -0.1253220   0.3603286   0.6073134  )
        19        Mo     tau(  19) = (  -0.1249684   0.6493789   0.4818062  )
        20        Mo     tau(  20) = (  -0.1250002   0.5051824  -0.4825273  )
        21        Mo     tau(  21) = (  -0.2500040   0.5773207  -0.0001409  )
        22        S      tau(  22) = (  -0.2500002   0.4330136  -0.6064556  )
        23        S      tau(  23) = (  -0.1249903   0.5051158  -0.1241917  )
        24        S      tau(  24) = (  -0.2499555   0.5769406   0.3578597  )
        25        S      tau(  25) = (  -0.2500001   0.4330135  -0.3584711  )
        26        S      tau(  26) = (  -0.1249930   0.5052458   0.1241101  )
        27        S      tau(  27) = (  -0.2497899   0.5778453   0.6063597  )
        28        Mo     tau(  28) = (   0.2497834  -0.0005160   0.4806710  )
        29        Mo     tau(  29) = (  -0.2500004   0.7216889  -0.4825273  )
        30        Mo     tau(  30) = (  -0.3750188   0.7938286  -0.0001549  )
        31        S      tau(  31) = (  -0.3750004   0.6495201  -0.6064556  )
        32        S      tau(  32) = (  -0.2500074   0.7216649  -0.1242513  )
        33        S      tau(  33) = (  -0.3752234   0.7935039   0.3566636  )
        34        S      tau(  34) = (  -0.3750004   0.6495200  -0.3584711  )
        35        S      tau(  35) = (  -0.2499996   0.7216607   0.1240200  )
        36        S      tau(  36) = (  -0.3746819   0.7948899   0.6057341  )
        37        Mo     tau(  37) = (   0.3750034   0.2123618   0.4807886  )
        38        Mo     tau(  38) = (   0.3750004   0.0721694  -0.4825273  )
        39        Mo     tau(  39) = (   0.2499981   0.1443415  -0.0000413  )
        40        S      tau(  40) = (   0.2500004   0.0000006  -0.6064556  )
        41        S      tau(  41) = (   0.3750280   0.0722231  -0.1241519  )
        42        S      tau(  42) = (   0.2489233   0.1437373   0.3564531  )
        43        S      tau(  43) = (   0.2500004   0.0000005  -0.3584711  )
        44        S      tau(  44) = (   0.3749877   0.0720947   0.1241383  )
        45        S      tau(  45) = (   0.2497122   0.1423104   0.6055821  )
        46        Mo     tau(  46) = (   0.2490774   0.4329018   0.4862977  )
        47        Mo     tau(  47) = (   0.2500001   0.2886759  -0.4825273  )
        48        Mo     tau(  48) = (   0.1250319   0.3608540  -0.0000126  )
        49        S      tau(  49) = (   0.1250001   0.2165071  -0.6064556  )
        50        S      tau(  50) = (   0.2500259   0.2886851  -0.1240979  )
        51        S      tau(  51) = (   0.1263042   0.3620125   0.3614359  )
        52        S      tau(  52) = (   0.1250002   0.2165070  -0.3584711  )
        53        S      tau(  53) = (   0.2500168   0.2886898   0.1242904  )
        54        S      tau(  54) = (   0.1173694   0.3566575   0.6132890  )
        55        Mo     tau(  55) = (   0.1240062   0.6506471   0.4823696  )
        56        Mo     tau(  56) = (   0.1249998   0.5051824  -0.4825273  )
        57        Mo     tau(  57) = (   0.0000191   0.5773226  -0.0001255  )
        58        S      tau(  58) = (  -0.0000002   0.4330136  -0.6064556  )
        59        S      tau(  59) = (   0.1250359   0.5051398  -0.1241676  )
        60        S      tau(  60) = (   0.0000697   0.5768181   0.3580317  )
[...]
       133        S      tau( 133) = (   0.4999999   0.4330135  -0.3584711  )
       134        S      tau( 134) = (   0.6250095   0.5052263   0.1241915  )
       135        S      tau( 135) = (   0.5006407   0.5846211   0.6091832  )
       136        Mo     tau( 136) = (   0.0000410   0.0004185   0.4809769  )
       137        Mo     tau( 137) = (   0.4999996   0.7216889  -0.4825273  )
       138        Mo     tau( 138) = (   0.3750036   0.7938273  -0.0000272  )
       139        S      tau( 139) = (   0.3749996   0.6495201  -0.6064556  )
       140        S      tau( 140) = (   0.4999499   0.7216482  -0.1241729  )
       141        S      tau( 141) = (   0.3750006   0.7941054   0.3569117  )
       142        S      tau( 142) = (   0.3749996   0.6495200  -0.3584711  )
       143        S      tau( 143) = (   0.5000314   0.7216102   0.1241515  )
       144        S      tau( 144) = (   0.3752329   0.7966920   0.6062052  )
       145        Pt     tau( 145) = (   0.2580795   0.4348292   0.7095693  )
       146        Pd     tau( 146) = (   0.4899479   0.4358638   0.7204770  )
       147        Pd     tau( 147) = (   0.2580988   0.4348680   0.8997788  )

     DFT-D3 Dispersion Correction (3-body terms):
       Reference C6 values for interpolation:

[...]
   -40.5923 -40.5876 -40.5855 -40.5853 -40.5833 -40.5579 -40.5551 -40.5549
   -40.5534 -40.5470 -40.5457 -40.5402 -40.5229 -40.5206 -40.5118 -40.4919
   -40.4785 -40.4751 -40.4452 -20.0070 -19.8870 -19.8703 -19.7863 -19.7143
   -19.6633 -19.4804 -19.4539 -19.4287 -19.3715 -19.2884 -19.2526 -19.0723
   -18.8273 -18.7770 -18.7502 -18.7428 -18.7413 -18.7379 -18.7239 -18.6897
   -18.6771 -18.6403 -18.6214 -18.6109 -18.6060 -18.5924 -18.5554 -18.5535
   -18.5417 -18.4958 -18.4935 -18.4740 -18.4600 -18.4371 -18.4131 -18.4030
   -18.3956 -18.3790 -18.3123 -18.3106 -18.2928 -18.2547 -18.2431 -18.2272
   -18.2211 -18.1878 -18.1708 -18.1541 -18.1288 -18.1280 -18.1274 -18.1270
   -18.1269 -18.1078 -18.1071 -18.0734 -18.0706 -18.0594 -18.0540 -18.0535
   -18.0463 -18.0409 -18.0300 -18.0067 -17.9968 -17.9903 -17.9818 -17.9782
   -17.9685 -17.9482 -17.9444 -17.9415 -17.9343 -17.9249 -17.9160 -17.8861
   -17.8845 -17.8733 -17.8654 -17.8653 -17.8624 -17.8207 -17.8188 -17.8058
   -17.8057 -17.8036 -17.7896 -17.7885 -17.7808 -17.7653 -17.7504 -17.7443
   -17.7425 -17.6902 -17.6876 -12.0721 -11.8537 -11.6954 -11.6826 -11.6527
   -11.5224 -11.4828 -11.4754 -11.4726 -11.4701 -11.4588 -11.4499 -11.4430
   -11.4038 -11.3843 -11.3768 -11.3748 -11.3505 -11.3467 -11.3196 -11.3125
   -11.2899 -11.2878 -11.2604 -11.2575 -11.2574 -11.2558 -11.2135 -11.2128
   -11.2076 -11.1726 -11.1605 -11.1572 -11.1540 -11.1297 -11.0543 -11.0274
   -11.0189 -10.9934 -10.9762 -10.9686 -10.9468 -10.9315 -10.9235 -10.9081
   -10.9038 -10.9014 -10.8723 -10.8614 -10.8519 -10.8348 -10.8328 -10.8309
   -10.8298 -10.8263 -10.8247 -10.8137 -10.8097 -10.7957 -10.7750 -10.7683
   -10.7654 -10.7563 -10.7405 -10.6494 -10.5968 -10.5745 -10.5348 -10.5002
   -10.4934 -10.4413 -10.3900 -10.3403 -10.3096 -10.2434 -10.2125 -10.1312
   -10.1276 -10.1188 -10.1148 -10.0576 -10.0440 -10.0205 -10.0182  -9.9628
    -9.9555  -9.9435  -9.9384  -9.9364  -9.9272  -9.9167  -9.9050  -9.9028
    -9.8978  -9.8841  -9.8810  -9.8220  -9.8015  -9.7865  -9.7711  -9.7608
    -9.7577  -9.7354  -9.7283  -9.7166  -9.7092  -9.7015  -9.6969  -9.6868
    -9.6610  -9.6567  -9.6442  -9.6319  -9.6185  -9.6124  -9.6049  -9.5691
    -9.5565  -9.5410  -9.5322  -9.5258  -9.5142  -9.4985  -9.4733  -9.4709
    -9.4438  -9.3924  -9.3779  -9.3384  -9.3199  -9.2749  -9.2146  -9.2127
    -9.1971  -9.1778  -9.1672  -9.1526  -9.1432  -9.1378  -9.1270  -9.1136
    -9.1024  -9.0899  -9.0681  -9.0569  -9.0430  -9.0307  -9.0252  -9.0083
    -8.9992  -8.9903  -8.9815  -8.9708  -8.9665  -8.9516  -8.9428  -8.9362
    -8.9336  -8.9319  -8.9286  -8.9072  -8.8979  -8.8764  -8.8653  -8.8610
    -8.8577  -8.8553  -8.8461  -8.8400  -8.8396  -8.8324  -8.8293  -8.8218
[...]
    -3.7727  -3.7588  -3.7244  -3.6753  -3.6373  -3.6017  -3.5983  -3.5955
    -3.5946  -3.5799  -3.5798  -3.5755  -3.5538  -3.5491  -3.5151  -3.5052
    -3.5015  -3.4965  -3.4793  -3.4779  -3.4725  -3.4701  -3.4622  -3.4606
    -3.4265  -3.4110  -3.3940  -3.3706  -3.3622  -3.3549  -3.3506  -3.3473
    -3.3456  -3.3202  -3.3171  -3.3118  -3.3067  -3.2895  -3.2807  -3.2717
    -3.2712  -3.2701  -3.2691  -3.2458  -3.2417  -3.2332  -3.2279  -3.2243
    -3.2087  -3.2042  -3.1964  -3.1901  -3.1865  -3.1806  -3.1564  -3.1358
    -3.1280  -3.1177  -3.1012  -3.0932  -3.0739  -3.0687  -3.0656  -3.0377
    -3.0271  -3.0239  -3.0111  -3.0076  -3.0071  -3.0068  -3.0053  -2.9793
    -2.9620  -2.9592  -2.9575  -2.9393  -2.9316  -2.9235  -2.9211  -2.9175
    -2.9113  -2.9028  -2.8931  -2.8841  -2.8768  -2.8670  -2.8615  -2.8467
    -2.8359  -2.8278  -2.8136  -2.8046  -2.8011  -2.7939  -2.7733  -2.7391
    -2.7297  -2.7085  -2.6992  -2.6547  -2.6452  -2.6429  -2.6350  -2.6317
    -2.6204  -2.5636  -2.5623  -2.5178  -2.5045  -2.4952  -2.4845  -2.4810
    -2.4711  -2.3766  -2.3632  -2.3382  -2.3113  -2.3068

     the Fermi energy is    -4.7424 ev

!    total energy              =  -26543.75368667 Ry
     total all-electron energy =   -522376.349994 Ry
     estimated scf accuracy    <          4.2E-09 Ry
     smearing contrib. (-TS)   =      -0.00046052 Ry
     internal energy E=F+TS    =  -26543.75322616 Ry

     The total energy is F=E-TS. E is the sum of the following terms:
     one-electron contribution =  514544.46272873 Ry
     hartree contribution      = -257416.92416020 Ry
     xc contribution           =   -1565.45533814 Ry
     ewald contribution        = -265657.85203894 Ry
     DFT-D3 Dispersion         =      -4.04452861 Ry
     one-center paw contrib.   =  -16443.93988900 Ry

     convergence has been achieved in  13 iterations

     negative rho (up, down):  9.484E-04 0.000E+00

     Forces acting on atoms (cartesian axes, Ry/au):

     atom    1 type  1   force =     0.00002580    0.00009016   -0.00017017
     atom    2 type  1   force =    -0.00001993    0.00000087    0.00189923
     atom    3 type  1   force =     0.00005585   -0.00005214   -0.00004004
     atom    4 type  2   force =     0.00000777   -0.00000277   -0.00328293
     atom    5 type  2   force =     0.00003710   -0.00005897   -0.00006859
     atom    6 type  2   force =     0.00003131   -0.00031907    0.00015736
     atom    7 type  2   force =    -0.00008724    0.00001007    0.00151159
     atom    8 type  2   force =     0.00006442   -0.00005589   -0.00005501
     atom    9 type  2   force =     0.00043183    0.00035064   -0.00007676
     atom   10 type  1   force =     0.00014365   -0.00011960   -0.00004228
     atom   11 type  1   force =    -0.00001879    0.00000021    0.00189444
     atom   12 type  1   force =     0.00005856   -0.00002980   -0.00008708
     atom   13 type  2   force =     0.00000761   -0.00000210   -0.00328286
     atom   14 type  2   force =     0.00006822   -0.00008419   -0.00008918
     atom   15 type  2   force =     0.00009194    0.00039092    0.00017206
     atom   16 type  2   force =    -0.00008452   -0.00000008    0.00152601
     atom   17 type  2   force =     0.00005809   -0.00000535   -0.00008761
     atom   18 type  2   force =     0.00050633   -0.00015517    0.00018886
     atom   19 type  1   force =     0.00018825   -0.00015770    0.00017738
     atom   20 type  1   force =    -0.00001796   -0.00000468    0.00190005
     atom   21 type  1   force =     0.00002965   -0.00003496   -0.00005496
     atom   22 type  2   force =     0.00000730   -0.00000128   -0.00328298
     atom   23 type  2   force =     0.00001880   -0.00002485   -0.00002036
     atom   24 type  2   force =    -0.00014384   -0.00000716    0.00058975
     atom   25 type  2   force =    -0.00008279   -0.00001201    0.00150096
     atom   26 type  2   force =     0.00006731    0.00000482   -0.00004755
     atom   27 type  2   force =    -0.00003888   -0.00005940   -0.00006038
     atom   28 type  1   force =    -0.00004424    0.00018019    0.00008480
     atom   29 type  1   force =    -0.00001766    0.00000020    0.00190711
     atom   30 type  1   force =     0.00004313   -0.00003168   -0.00004473
     atom   31 type  2   force =     0.00000738   -0.00000194   -0.00328121
     atom   32 type  2   force =     0.00001343   -0.00001598   -0.00005086
     atom   33 type  2   force =    -0.00007043    0.00007188    0.00024497
     atom   34 type  2   force =    -0.00008970   -0.00000206    0.00151464
     atom   35 type  2   force =     0.00002813   -0.00007982   -0.00003854
     atom   36 type  2   force =    -0.00010209    0.00029673    0.00014864
     atom   37 type  1   force =    -0.00000730    0.00015992    0.00020356
     atom   38 type  1   force =    -0.00001722   -0.00000007    0.00189790
     atom   39 type  1   force =     0.00002667   -0.00003392   -0.00006942
     atom   40 type  2   force =     0.00000731   -0.00000256   -0.00328243
     atom   41 type  2   force =     0.00002182   -0.00004172   -0.00010305
     atom   42 type  2   force =     0.00014842    0.00040900   -0.00002007
     atom   43 type  2   force =    -0.00007935    0.00001444    0.00151029
     atom   44 type  2   force =     0.00007434    0.00001468   -0.00015639
     atom   45 type  2   force =    -0.00009998    0.00025988   -0.00029708
     atom   46 type  1   force =    -0.00025504    0.00002630   -0.00052621
     atom   47 type  1   force =    -0.00001914    0.00000180    0.00189185
     atom   48 type  1   force =     0.00001991   -0.00000000   -0.00005077
     atom   49 type  2   force =     0.00000754   -0.00000237   -0.00328269
     atom   50 type  2   force =     0.00002311   -0.00000895    0.00004514
     atom   51 type  2   force =     0.00057509    0.00000433   -0.00006208
     atom   52 type  2   force =    -0.00008750    0.00001109    0.00150600
     atom   53 type  2   force =     0.00004239    0.00002169   -0.00005923
     atom   54 type  2   force =    -0.00002144    0.00001209   -0.00057287
     atom   55 type  1   force =     0.00009212   -0.00009713   -0.00000589
     atom   56 type  1   force =    -0.00001697   -0.00000460    0.00189426
     atom   57 type  1   force =     0.00003151    0.00001577   -0.00007238
     atom   58 type  2   force =     0.00000727   -0.00000162   -0.00328318
     atom   59 type  2   force =     0.00001303   -0.00000602    0.00000229
     atom   60 type  2   force =    -0.00006438   -0.00048901   -0.00019527
[...]
     atom  133 type  2   force =    -0.00008714   -0.00001023    0.00149899
     atom  134 type  2   force =     0.00001849   -0.00002752   -0.00006465
     atom  135 type  2   force =    -0.00001039    0.00024194   -0.00009609
     atom  136 type  1   force =    -0.00014028    0.00004813    0.00017986
     atom  137 type  1   force =    -0.00002171    0.00000072    0.00190165
     atom  138 type  1   force =     0.00004108   -0.00002663   -0.00010202
     atom  139 type  2   force =     0.00000770   -0.00000211   -0.00328238
     atom  140 type  2   force =     0.00009904   -0.00004966   -0.00003934
     atom  141 type  2   force =    -0.00009369    0.00059934   -0.00039938
     atom  142 type  2   force =    -0.00008975   -0.00000160    0.00150051
     atom  143 type  2   force =     0.00000823    0.00000242   -0.00005035
     atom  144 type  2   force =     0.00009083    0.00045639    0.00061227
     atom  145 type  3   force =     0.00015364    0.00004925   -0.00077523
     atom  146 type  4   force =     0.00029168   -0.00039277    0.00070229
     atom  147 type  4   force =     0.00003620    0.00026926   -0.00009757

     Total force =     0.003605     Total SCF correction =     0.000393
     SCF correction compared to forces is large: reduce conv_thr to get better values
     Energy error            =      2.5E-05 Ry
     Gradient error          =      9.6E-04 Ry/Bohr

     bfgs converged in  59 scf cycles and  57 bfgs steps
     (criteria: energy <  1.0E-04 Ry, force <  1.0E-03 Ry/Bohr)

     End of BFGS Geometry Optimization

     Final energy             =  -26543.7536866716 Ry

     File ./outdir/pwscf.bfgs deleted, as requested
Begin final coordinates

ATOMIC_POSITIONS (angstrom)
Mo               1.5611906065        2.7118536073        6.0790002357
Mo               1.5769197498        0.9104407117       -6.0872367793    0   0   0
Mo              -0.0149739530        1.8218217670        0.0006666640
S                0.0000044503        0.0000077495       -7.6506323570    0   0   0
S                1.5617494199        0.9119791420       -1.5655170888
S               -0.0078795921        1.8189802095        4.4952992087
S                0.0000053241        0.0000068460       -4.5222282367    0   0   0
S                1.5620533235        0.9103291956        1.5661161497
S               -0.0240240495        1.7965752102        7.6342010704
Mo              -0.0222603095        5.4562190094        6.0776370085
Mo               0.0000011799        3.6417399547       -6.0872367793    0   0   0
Mo              -1.5919865692        4.5529203467        0.0009782051
S               -1.5769141197        2.7313069925       -7.6506323570    0   0   0
S               -0.0151146678        3.6426446827       -1.5645544396
S               -1.5843780334        4.5468064273        4.4961922032
S               -1.5769132459        2.7313060890       -4.5222282367    0   0   0
S               -0.0138690649        3.6431678235        1.5680029653
S               -1.5920502133        4.5392585393        7.6407898426
Mo              -1.5890388305        8.1864080827        6.0597927515
Mo              -1.5769173901        6.3730391977       -6.0872367793    0   0   0
Mo              -3.1688576392        7.2838637648       -0.0018280469
S               -3.1538326896        5.4626062355       -7.6506323570    0   0   0
S               -1.5914964767        6.3726543656       -1.5662981418
S               -3.1646948752        7.2725141288        4.4929240887
S               -3.1538318159        5.4626053320       -4.5222282367    0   0   0
S               -1.5921611874        6.3745379076        1.5657594603
S               -3.1587246492        7.2802323503        7.6330321459
Mo               3.1404863827       -0.0132284569        6.0554044203
Mo              -3.1538359601        9.1043384407       -6.0872367793    0   0   0
Mo              -4.7458872906       10.0152534507       -0.0013367355
S               -4.7307512596        8.1939054785       -7.6506323570    0   0   0
S               -3.1684494316        9.1052973508       -1.5668347090
S               -4.7421370224       10.0027492711        4.4875672397
S               -4.7307503859        8.1939045750       -4.5222282367    0   0   0
S               -3.1688290406        9.1045267887        1.5647413257
S               -4.7387183979       10.0156602847        7.6282923865
Mo               4.7166767929        2.6785014023        6.0735103480
Mo               4.7307503218        0.9104407117       -6.0872367793    0   0   0
Mo               3.1389304332        1.8218314998        0.0001659841
S                3.1538350223        0.0000077495       -7.6506323570    0   0   0
S                4.7164576343        0.9119076951       -1.5650014535
S                3.1348144993        1.8118637444        4.4957615322
S                3.1538358961        0.0000068460       -4.5222282367    0   0   0
S                4.7152313822        0.9104217808        1.5671525568
S                3.1336578732        1.7850567474        7.6393193717
Mo               3.1187482611        5.4557112854        6.1339739825
Mo               3.1538317519        3.6417399547       -6.0872367793    0   0   0
Mo               1.5625008784        4.5528401714        0.0002218788
S                1.5769164523        2.7313069925       -7.6506323570    0   0   0
S                3.1391159774        3.6423324225       -1.5655199346
S                1.5836680118        4.5562622837        4.5479883753
S                1.5769173261        2.7313060890       -4.5222282367    0   0   0
S                3.1394729229        3.6428130164        1.5681937023
S                1.4441088211        4.4774920905        7.7352547820
Mo               1.5493419700        8.2010131920        6.0686337559
Mo               1.5769131819        6.3730391977       -6.0872367793    0   0   0
Mo              -0.0146785566        7.2835128278       -0.0010803286
S               -0.0000021176        5.4626062355       -7.6506323570    0   0   0
S                1.5624561485        6.3730508998       -1.5661646863
S               -0.0113802584        7.2713150371        4.4989752378
[...]
S                6.3076599001        5.4626053320       -4.5222282367    0   0   0
S                7.8694451709        6.3745915728        1.5663885139
S                6.3126381701        7.3607279339        7.6736155126
Mo              -0.0115863612       -0.0084247549        6.0547495146
Mo               6.3076557559        9.1043384407       -6.0872367793    0   0   0
Mo               4.7158094491       10.0149636109        0.0009954063
S                4.7307404564        8.1939054785       -7.6506323570    0   0   0
S                6.2918662361        9.1052472582       -1.5659556527
S                4.7208824234        9.9970620874        4.4912773324
S                4.7307413301        8.1939045750       -4.5222282367    0   0   0
S                6.2935562545        9.1031621358        1.5665474041
S                4.7204634110       10.0356882117        7.6353361369
Pt               3.1870416311        5.4409428260        8.9684120047
Pd               6.2801282936        5.4258673722        9.0517819253
Pd               4.6511599680        5.9853600178       10.9830814495
End final coordinates

     Writing all to output data dir ./outdir/pwscf.save/ :
     XML data file, charge density, pseudopotentials, collected wavefunctions

     General routines

     Parallel routines

   This run was terminated on:   7:34:27  19Apr2024

   JOB DONE.