     Program PWSCF v.7.2 starts on 11Nov2023 at 18:57:24

     Waiting for input...
     Reading input from standard input
Warning: card &CELL ignored
Warning: card / ignored

     Current dimensions of program PWSCF are:
     Max number of different atomic species (ntypx) = 10
     Max number of k-points (npk) =  40000
     Max angular momentum in pseudopotentials (lmaxx) =  4
     file Mo.pbe-spn-kjpaw_psl.1.0.0.UPF: wavefunction(s)  4S 4D renormalized
     file S.pbe-n-kjpaw_psl.1.0.0.UPF: wavefunction(s)  3S 3P renormalized
     file Au.pbe-spfn-kjpaw_psl.1.0.0.UPF: wavefunction(s)  5P 5D 4F renormalized

     R & G space division:  proc/nbgrp/npool/nimage =      36
     Subspace diagonalization in iterative solution of the eigenvalue problem:
     one sub-group per band group will be used

     Using Slab Decomposition

     bravais-lattice index     =            0
     lattice parameter (alat)  =      23.8199  a.u.
     unit-cell volume          =   33861.0370 (a.u.)^3
     number of atoms/cell      =          193
     number of atomic types    =            3
     number of electrons       =      1697.00
     number of Kohn-Sham states=         1019
     kinetic-energy cutoff     =      77.0000  Ry
     charge density cutoff     =     539.0000  Ry
     scf convergence threshold =      1.0E-06
     mixing beta               =       0.2000
     number of iterations used =            8  plain     mixing
     energy convergence thresh.=      1.0E-04
     force convergence thresh. =      1.0E-03
     Exchange-correlation= SLA  PW   PBX  PBC
                           (   1   4   3   4   0   0   0)
     nstep                     =         1000

     Effective Screening Medium Method
     Boundary Conditions: Vacuum-Slab-Vacuum
     total charge in unit cell        =   0.0000
     grid points for fit at edges     =        4

     celldm(1)=  23.819920  celldm(2)=   0.000000  celldm(3)=   0.000000
     celldm(4)=   0.000000  celldm(5)=   0.000000  celldm(6)=   0.000000

     crystal axes: (cart. coord. in units of alat)
               a(1) = (   1.000000   0.000000   0.000000 )
               a(2) = (  -0.499999   0.866026   0.000000 )
               a(3) = (   0.000000   0.000000   2.893000 )

     reciprocal axes: (cart. coord. in units 2 pi/alat)
               b(1) = (  1.000000  0.577349  0.000000 )
               b(2) = (  0.000000  1.154700  0.000000 )
               b(3) = (  0.000000  0.000000  0.345662 )

     PseudoPot. # 1 for Mo read from file:
     ./pseudo/Mo.pbe-spn-kjpaw_psl.1.0.0.UPF
     MD5 check sum: 317bf72632116215fd98f72de1686f13
     Pseudo is Projector augmented-wave + core cor, Zval = 14.0
     Generated using 'atomic' code by A. Dal Corso  v.7.2
     Shape of augmentation charge: PSQ
     Using radial grid of 1229 points,  6 beta functions with:
                l(1) =   0
                l(2) =   0
                l(3) =   1
                l(4) =   1
                l(5) =   2
                l(6) =   2
     Q(r) pseudized with 0 coefficients

     PseudoPot. # 2 for S  read from file:
     ./pseudo/S.pbe-n-kjpaw_psl.1.0.0.UPF
     MD5 check sum: 8b7b5302570d38d5e87fed6a1065abda
     Pseudo is Projector augmented-wave + core cor, Zval =  6.0
     Generated using 'atomic' code by A. Dal Corso  v.7.2
     Shape of augmentation charge: PSQ
     Using radial grid of 1151 points,  6 beta functions with:
                l(1) =   0
                l(2) =   0
                l(3) =   1
                l(4) =   1
                l(5) =   2
                l(6) =   2
     Q(r) pseudized with 0 coefficients

     PseudoPot. # 3 for Au read from file:
     ./pseudo/Au.pbe-spfn-kjpaw_psl.1.0.0.UPF
     MD5 check sum: c4676eff00405da86a99eb409921eac8
     Pseudo is Projector augmented-wave + core cor, Zval = 33.0
     Generated using 'atomic' code by A. Dal Corso  v.7.2
     Shape of augmentation charge: PSQ
     Using radial grid of 1279 points,  8 beta functions with:
                l(1) =   0
                l(2) =   0
                l(3) =   1
                l(4) =   1
                l(5) =   2
                l(6) =   2
                l(7) =   3
                l(8) =   3
     Q(r) pseudized with 0 coefficients

     atomic species   valence    mass     pseudopotential
        Mo            14.00    95.95000     Mo( 1.00)
        S              6.00    32.06000     S ( 1.00)
        Au            33.00   196.96657     Au( 1.00)

     No symmetry found

   Cartesian axes

     site n.     atom                  positions (alat units)
         1           Mo  tau(   1) = (   0.0000010   0.1443372  -0.7272732  )
         2           Mo  tau(   2) = (   0.1249995   0.0721706  -0.2424038  )
         3           S   tau(   3) = (   0.0000015   0.1443386  -0.3667807  )
         4           S   tau(   4) = (   0.1250010   0.0721682  -0.6030489  )
         5           S   tau(   5) = (   0.1250010   0.0721683  -0.8514963  )
         6           S   tau(   6) = (   0.0000015   0.1443389  -0.1180260  )
         7           Mo  tau(   7) = (   0.0000041   0.1443345   0.2424023  )
         8           Mo  tau(   8) = (   0.1250030   0.0721700   0.7272501  )
         9           S   tau(   9) = (   0.0000038   0.1443392   0.6028599  )
        10           S   tau(  10) = (   0.1250037   0.0721683   0.3667755  )
        11           S   tau(  11) = (   0.1250033   0.0721688   0.1180247  )
        12           S   tau(  12) = (   0.0000038   0.1443391   0.8517304  )
        13           Mo  tau(  13) = (  -0.1249989   0.3608437  -0.7272732  )
        14           Mo  tau(  14) = (   0.0000030   0.2886752  -0.2424042  )
        15           S   tau(  15) = (  -0.1249977   0.3608450  -0.3667802  )
        16           S   tau(  16) = (   0.0000012   0.2886747  -0.6030489  )
        17           S   tau(  17) = (   0.0000012   0.2886748  -0.8514963  )
        18           S   tau(  18) = (  -0.1249977   0.3608454  -0.1180274  )
        19           Mo  tau(  19) = (  -0.1249981   0.3608444   0.2424011  )
        20           Mo  tau(  20) = (   0.0000038   0.2886765   0.7272499  )
        21           S   tau(  21) = (  -0.1249961   0.3608457   0.6028596  )
        22           S   tau(  22) = (   0.0000037   0.2886752   0.3667739  )
        23           S   tau(  23) = (   0.0000035   0.2886747   0.1180263  )
        24           S   tau(  24) = (  -0.1249962   0.3608459   0.8517305  )
        25           Mo  tau(  25) = (  -0.2499987   0.5773502  -0.7272732  )
        26           Mo  tau(  26) = (  -0.1249977   0.5051839  -0.2424055  )
        27           S   tau(  27) = (  -0.2499981   0.5773518  -0.3667809  )
        28           S   tau(  28) = (  -0.1249986   0.5051812  -0.6030489  )
        29           S   tau(  29) = (  -0.1249986   0.5051813  -0.8514963  )
        30           S   tau(  30) = (  -0.2499979   0.5773512  -0.1180266  )
        31           Mo  tau(  31) = (  -0.2499983   0.5773503   0.2424020  )
        32           Mo  tau(  32) = (  -0.1249962   0.5051830   0.7272501  )
        33           S   tau(  33) = (  -0.2499958   0.5773522   0.6028593  )
        34           S   tau(  34) = (  -0.1249963   0.5051821   0.3667746  )
        35           S   tau(  35) = (  -0.1249968   0.5051820   0.1180254  )
        36           S   tau(  36) = (  -0.2499959   0.5773522   0.8517307  )
        37           Mo  tau(  37) = (  -0.3749985   0.7938567  -0.7272732  )
        38           Mo  tau(  38) = (  -0.2500001   0.7216874  -0.2424031  )
        39           S   tau(  39) = (  -0.3749980   0.7938584  -0.3667800  )
        40           S   tau(  40) = (  -0.2499984   0.7216877  -0.6030489  )
        41           S   tau(  41) = (  -0.2499984   0.7216878  -0.8514963  )
        42           S   tau(  42) = (  -0.3749982   0.7938585  -0.1180264  )
        43           Mo  tau(  43) = (  -0.3749976   0.7938584   0.2424002  )
        44           Mo  tau(  44) = (  -0.2499965   0.7216896   0.7272502  )
        45           S   tau(  45) = (  -0.3749954   0.7938586   0.6028596  )
        46           S   tau(  46) = (  -0.2499962   0.7216890   0.3667741  )
        47           S   tau(  47) = (  -0.2499961   0.7216884   0.1180258  )
        48           S   tau(  48) = (  -0.3749955   0.7938585   0.8517305  )
        49           Mo  tau(  49) = (   0.2500010   0.1443372  -0.7272732  )
        50           Mo  tau(  50) = (   0.3750034   0.0721723  -0.2424032  )
        51           S   tau(  51) = (   0.2500017   0.1443391  -0.3667788  )
        52           S   tau(  52) = (   0.3750010   0.0721682  -0.6030489  )
        53           S   tau(  53) = (   0.3750010   0.0721683  -0.8514963  )
        54           S   tau(  54) = (   0.2500016   0.1443391  -0.1180271  )
        55           Mo  tau(  55) = (   0.2500037   0.1443371   0.2424008  )
        56           Mo  tau(  56) = (   0.3750049   0.0721708   0.7272499  )
        57           S   tau(  57) = (   0.2500041   0.1443391   0.6028593  )
        58           S   tau(  58) = (   0.3750026   0.0721682   0.3667763  )
        59           S   tau(  59) = (   0.3750033   0.0721687   0.1180242  )
        60           S   tau(  60) = (   0.2500040   0.1443392   0.8517310  )
[...]
       179           S   tau( 179) = (   0.6250040   0.5051821   0.1180241  )
       180           S   tau( 180) = (   0.5000045   0.5773523   0.8517308  )
       181           Mo  tau( 181) = (   0.3750016   0.7938567  -0.7272732  )
       182           Mo  tau( 182) = (   0.5000025   0.7216901  -0.2424039  )
       183           S   tau( 183) = (   0.3750019   0.7938578  -0.3667793  )
       184           S   tau( 184) = (   0.5000016   0.7216877  -0.6030489  )
       185           S   tau( 185) = (   0.5000016   0.7216878  -0.8514963  )
       186           S   tau( 186) = (   0.3750020   0.7938579  -0.1180272  )
       187           Mo  tau( 187) = (   0.3750057   0.7938586   0.2424015  )
       188           Mo  tau( 188) = (   0.5000052   0.7216902   0.7272503  )
       189           S   tau( 189) = (   0.3750045   0.7938588   0.6028592  )
       190           S   tau( 190) = (   0.5000042   0.7216887   0.3667757  )
       191           S   tau( 191) = (   0.5000039   0.7216887   0.1180242  )
       192           S   tau( 192) = (   0.3750047   0.7938587   0.8517308  )
       193           Au  tau( 193) = (   0.1250302   0.5051980   1.0262628  )

     DFT-D3 Dispersion Correction (3-body terms):
       Reference C6 values for interpolation:

         atom   Coordination number   C6
         S          0.000           268.01
         S          0.995           261.99
         S          1.990           251.62
         Mo         0.000          1691.79
         Mo         1.942          1004.01
         Mo        11.056           674.22
         Au         0.000           684.71
         Au         0.985           634.31

       Values used:

         atom   Coordination number  R0_AB[au]  C6      C8
         Mo        10.208            3.547    674.21  77634.20
         Mo        10.221            3.547    674.22  77634.20
         S          3.858            3.128    251.62  12327.25
[...]
     atom   15 type  2   force =     0.00000000    0.00000000    0.00000000
     atom   16 type  2   force =     0.00000000    0.00000000    0.00000000
     atom   17 type  2   force =     0.00000000    0.00000000    0.00000000
     atom   18 type  2   force =     0.00000000    0.00000000    0.00000000
     atom   19 type  1   force =     0.00010500    0.00005107   -0.00024336
     atom   20 type  1   force =    -0.00004222    0.00007535   -0.00084582
     atom   21 type  2   force =     0.00002227    0.00001452   -0.00020296
     atom   22 type  2   force =     0.00002353    0.00003050   -0.00014167
     atom   23 type  2   force =     0.00002035    0.00002385   -0.00001282
     atom   24 type  2   force =     0.00001076    0.00000986   -0.00025941
     atom   25 type  1   force =     0.00000000    0.00000000    0.00000000
     atom   26 type  1   force =     0.00000000    0.00000000    0.00000000
     atom   27 type  2   force =     0.00000000    0.00000000    0.00000000
     atom   28 type  2   force =     0.00000000    0.00000000    0.00000000
     atom   29 type  2   force =     0.00000000    0.00000000    0.00000000
     atom   30 type  2   force =     0.00000000    0.00000000    0.00000000
     atom   31 type  1   force =     0.00005926   -0.00001643   -0.00025007
     atom   32 type  1   force =     0.00004443   -0.00005330   -0.00084021
     atom   33 type  2   force =     0.00001978   -0.00001411   -0.00022528
     atom   34 type  2   force =     0.00003938    0.00000441   -0.00013851
     atom   35 type  2   force =     0.00003539   -0.00000031   -0.00001209
     atom   36 type  2   force =    -0.00000099   -0.00000760   -0.00024852
     atom   37 type  1   force =     0.00000000    0.00000000    0.00000000
     atom   38 type  1   force =     0.00000000    0.00000000    0.00000000
     atom   39 type  2   force =     0.00000000    0.00000000    0.00000000
     atom   40 type  2   force =     0.00000000    0.00000000    0.00000000
     atom   41 type  2   force =     0.00000000    0.00000000    0.00000000
     atom   42 type  2   force =     0.00000000    0.00000000    0.00000000
     atom   43 type  1   force =    -0.00003321   -0.00000193   -0.00027593
     atom   44 type  1   force =     0.00002378   -0.00002516   -0.00079621
     atom   45 type  2   force =    -0.00000282   -0.00000369   -0.00021886
     atom   46 type  2   force =     0.00001428   -0.00001219   -0.00011311
     atom   47 type  2   force =     0.00000642   -0.00000775   -0.00004351
     atom   48 type  2   force =    -0.00000307   -0.00000441   -0.00023998
     atom   49 type  1   force =     0.00000000    0.00000000    0.00000000
     atom   50 type  1   force =     0.00000000    0.00000000    0.00000000
     atom   51 type  2   force =     0.00000000    0.00000000    0.00000000
     atom   52 type  2   force =     0.00000000    0.00000000    0.00000000
     atom   53 type  2   force =     0.00000000    0.00000000    0.00000000
     atom   54 type  2   force =     0.00000000    0.00000000    0.00000000
     atom   55 type  1   force =    -0.00003330    0.00008205   -0.00025572
     atom   56 type  1   force =     0.00001070   -0.00000608   -0.00079077
     atom   57 type  2   force =     0.00000334    0.00002486   -0.00023095
     atom   58 type  2   force =    -0.00000005    0.00000202   -0.00011068
     atom   59 type  2   force =    -0.00000077    0.00000247   -0.00004259
     atom   60 type  2   force =     0.00000871    0.00000678   -0.00024230
[...]
     atom  179 type  2   force =    -0.00001207    0.00000511   -0.00003707
     atom  180 type  2   force =    -0.00000167   -0.00000742   -0.00024682
     atom  181 type  1   force =     0.00000000    0.00000000    0.00000000
     atom  182 type  1   force =     0.00000000    0.00000000    0.00000000
     atom  183 type  2   force =     0.00000000    0.00000000    0.00000000
     atom  184 type  2   force =     0.00000000    0.00000000    0.00000000
     atom  185 type  2   force =     0.00000000    0.00000000    0.00000000
     atom  186 type  2   force =     0.00000000    0.00000000    0.00000000
     atom  187 type  1   force =    -0.00005251   -0.00007362   -0.00026850
     atom  188 type  1   force =    -0.00002494   -0.00001950   -0.00079329
     atom  189 type  2   force =    -0.00002779   -0.00001258   -0.00022777
     atom  190 type  2   force =    -0.00002797   -0.00001535   -0.00012615
     atom  191 type  2   force =    -0.00002492   -0.00000913   -0.00003630
     atom  192 type  2   force =    -0.00000835    0.00000072   -0.00024807
     atom  193 type  3   force =    -0.00093774    0.00026535    0.00268994

     DFT-D3 dispersion contribution to forces:
     atom    1 type  1   force =    -0.00000001    0.00000003    0.00255967
     atom    2 type  1   force =     0.00000000    0.00000000    0.00000390
     atom    3 type  2   force =     0.00000002    0.00000002   -0.00003426
     atom    4 type  2   force =    -0.00000001    0.00000002    0.00017136
     atom    5 type  2   force =    -0.00000000    0.00000005    0.00441502
     atom    6 type  2   force =     0.00000001   -0.00000001    0.00009075
     atom    7 type  1   force =    -0.00000031    0.00000247   -0.00001642
     atom    8 type  1   force =     0.00000004    0.00008457   -0.00246996
     atom    9 type  2   force =    -0.00000202   -0.00000018   -0.00015408
     atom   10 type  2   force =     0.00000000    0.00000354    0.00002839
     atom   11 type  2   force =    -0.00000001    0.00000002   -0.00009256
     atom   12 type  2   force =     0.00008710    0.00025558   -0.00429686
     atom   13 type  1   force =     0.00000002    0.00000001    0.00255968
     atom   14 type  1   force =     0.00000006   -0.00000002    0.00000389
     atom   15 type  2   force =     0.00000004    0.00000001   -0.00003428
     atom   16 type  2   force =     0.00000001    0.00000001    0.00017135
     atom   17 type  2   force =     0.00000001    0.00000001    0.00441487
     atom   18 type  2   force =     0.00000004    0.00000000    0.00009079
     atom   19 type  1   force =     0.00000101    0.00000058   -0.00001464
     atom   20 type  1   force =     0.00017393    0.00030003   -0.00211458
     atom   21 type  2   force =     0.00002522    0.00001455   -0.00011338
     atom   22 type  2   force =     0.00000018    0.00000211    0.00002968
     atom   23 type  2   force =     0.00000046    0.00000004   -0.00009209
     atom   24 type  2   force =     0.00046572    0.00026877   -0.00410814
     atom   25 type  1   force =     0.00000002   -0.00000003    0.00255967
     atom   26 type  1   force =     0.00000004    0.00000004    0.00000386
     atom   27 type  2   force =     0.00000004    0.00000000   -0.00003427
     atom   28 type  2   force =     0.00000001   -0.00000000    0.00017135
     atom   29 type  2   force =     0.00000001    0.00000000    0.00441488
     atom   30 type  2   force =     0.00000000    0.00000002    0.00009077
     atom   31 type  1   force =     0.00000197   -0.00000151   -0.00001641
     atom   32 type  1   force =     0.00034679    0.00000046   -0.00211468
     atom   33 type  2   force =    -0.00000119   -0.00000167   -0.00015411
     atom   34 type  2   force =     0.00000191   -0.00000091    0.00002969
     atom   35 type  2   force =     0.00000027    0.00000038   -0.00009208
     atom   36 type  2   force =     0.00026463   -0.00005236   -0.00429702
     atom   37 type  1   force =    -0.00000000   -0.00000000    0.00255966
     atom   38 type  1   force =    -0.00000002    0.00000003    0.00000391
     atom   39 type  2   force =     0.00000001    0.00000002   -0.00003420
     atom   40 type  2   force =     0.00000001   -0.00000001    0.00017136
     atom   41 type  2   force =     0.00000005   -0.00000003    0.00441502
     atom   42 type  2   force =     0.00000001    0.00000002    0.00009084
     atom   43 type  1   force =     0.00000000    0.00000001   -0.00001865
     atom   44 type  1   force =     0.00007315   -0.00004220   -0.00247007
     atom   45 type  2   force =    -0.00000001    0.00000000   -0.00015988
     atom   46 type  2   force =     0.00000307   -0.00000177    0.00002840
     atom   47 type  2   force =     0.00000001    0.00000000   -0.00009255
     atom   48 type  2   force =     0.00000001   -0.00000001   -0.00441143
     atom   49 type  1   force =     0.00000001    0.00000004    0.00255967
     atom   50 type  1   force =    -0.00000004   -0.00000001    0.00000392
     atom   51 type  2   force =    -0.00000002    0.00000001   -0.00003425
     atom   52 type  2   force =     0.00000001    0.00000001    0.00017135
     atom   53 type  2   force =     0.00000001    0.00000001    0.00441505
     atom   54 type  2   force =     0.00000000   -0.00000001    0.00009075
     atom   55 type  1   force =     0.00000034    0.00000248   -0.00001642
     atom   56 type  1   force =     0.00000280    0.00000168   -0.00249742
     atom   57 type  2   force =     0.00000201   -0.00000016   -0.00015406
     atom   58 type  2   force =     0.00000104    0.00000060    0.00002837
     atom   59 type  2   force =    -0.00000019   -0.00000011   -0.00009235
     atom   60 type  2   force =    -0.00008705    0.00025590   -0.00429671
[...]
     atom  179 type  2   force =    -0.00000002    0.00000022   -0.00009234
     atom  180 type  2   force =    -0.00026549   -0.00005257   -0.00429653
     atom  181 type  1   force =    -0.00000004   -0.00000001    0.00255968
     atom  182 type  1   force =    -0.00000004    0.00000001    0.00000390
     atom  183 type  2   force =    -0.00000004   -0.00000004   -0.00003425
     atom  184 type  2   force =    -0.00000002   -0.00000001    0.00017138
     atom  185 type  2   force =    -0.00000005   -0.00000003    0.00441502
     atom  186 type  2   force =    -0.00000003   -0.00000001    0.00009073
     atom  187 type  1   force =    -0.00000230   -0.00000095   -0.00001643
     atom  188 type  1   force =    -0.00007337   -0.00004237   -0.00246983
     atom  189 type  2   force =    -0.00000084    0.00000183   -0.00015405
     atom  190 type  2   force =    -0.00000305   -0.00000176    0.00002840
     atom  191 type  2   force =    -0.00000002   -0.00000000   -0.00009258
     atom  192 type  2   force =    -0.00017814   -0.00020359   -0.00429660
     atom  193 type  3   force =     0.00000041    0.00000004   -0.00654401

     Total force =     0.001663     Total SCF correction =     0.004699
     SCF correction compared to forces is large: reduce conv_thr to get better values
     Energy error            =      2.6E-06 Ry
     Gradient error          =      7.4E-04 Ry/Bohr

     bfgs converged in  60 scf cycles and  50 bfgs steps
     (criteria: energy <  1.0E-04 Ry, force <  1.0E-03 Ry/Bohr)

     End of BFGS Geometry Optimization

     Final energy             =  -33570.9337489502 Ry

     File ./outdir/pwscf.bfgs deleted, as requested
Begin final coordinates

ATOMIC_POSITIONS (angstrom)
Mo            0.0000119917        1.8193638619       -9.1672481230    0   0   0
Mo            1.5756136568        0.9097075315       -3.0554901653    0   0   0
S             0.0000188998        1.8193822938       -4.6232556019    0   0   0
S             1.5756321638        0.9096773839       -7.6014065489    0   0   0
S             1.5756326175        0.9096785128      -10.7330757790    0   0   0
S             0.0000189190        1.8193860094       -1.4877129945    0   0   0
Mo            0.0000387198        1.8193196932        3.0610211842
Mo            1.5756652189        0.9104008533        9.1832865489
S            -0.0007157506        1.8196376282        7.6146216464
S             1.5756518762        0.9096749783        4.6290741331
S             1.5756566024        0.9097103047        1.4932474342
S             0.0000210243        1.8178669997       10.7525164222
Mo           -1.5756053507        4.5484193819       -9.1672481230    0   0   0
Mo            0.0000378379        3.6387394919       -3.0554952701    0   0   0
S            -1.5755913433        4.5484363582       -4.6232494962    0   0   0
S             0.0000148214        3.6387329039       -7.6014065489    0   0   0
S             0.0000152751        3.6387340328      -10.7330757790    0   0   0
S            -1.5755906502        4.5484413613       -1.4877305502    0   0   0
Mo           -1.5756055664        4.5484320858        3.0612658170
Mo           -0.0004769477        3.6384455079        9.1816955623
S            -1.5769697412        4.5476193557        7.6132430321
S            -0.0000226639        3.6385884528        4.6292110601
S             0.0000314149        3.6388396949        1.4934259787
S            -1.5782501663        4.5468780713       10.7512196073
Mo           -3.1512226931        7.2774749019       -9.1672481230    0   0   0
Mo           -1.5755910988        6.3678216792       -3.0555115988    0   0   0
S            -3.1512162438        7.2774954350       -4.6232578178    0   0   0
S            -1.5756025210        6.3677884239       -7.6014065489    0   0   0
S            -1.5756020673        6.3677895528      -10.7330757790    0   0   0
S            -3.1512127704        7.2774877076       -1.4877200710    0   0   0
Mo           -3.1512559634        7.2775345321        3.0610211129
Mo           -1.5760867354        6.3674976837        9.1817048350
S            -3.1513309208        7.2767118946        7.6146448289
S            -1.5757499645        6.3678407066        4.6292087813
S            -1.5755136349        6.3677644791        1.4934268444
S            -3.1525079358        7.2782185581       10.7525392763
Mo           -4.7268400355       10.0065304219       -9.1672481230    0   0   0
Mo           -3.1512405618        9.0968403586       -3.0554816746    0   0   0
S            -4.7268341792       10.0065523623       -4.6232463762    0   0   0
S            -3.1512198634        9.0968439439       -7.6014065489    0   0   0
S            -3.1512194097        9.0968450728      -10.7330757790    0   0   0
S            -4.7268370797       10.0065537885       -1.4877176751    0   0   0
Mo           -4.7268239198       10.0065481795        3.0610629540
Mo           -3.1505720564        9.0965057623        9.1833089598
S            -4.7267978085       10.0065480958        7.6157408443
S            -3.1512202765        9.0968756527        4.6290764911
S            -3.1511913249        9.0968629876        1.4932488356
S            -4.7268277022       10.0065482738       10.7524105555
Mo            3.1512517547        1.8193638619       -9.1672481230    0   0   0
Mo            4.7269020221        0.9097289540       -3.0554823951    0   0   0
S             3.1512612351        1.8193882564       -4.6232320683    0   0   0
S             4.7268719268        0.9096773839       -7.6014065489    0   0   0
S             4.7268723805        0.9096785128      -10.7330757790    0   0   0
S             3.1512592485        1.8193890201       -1.4877261251    0   0   0
Mo            3.1512575502        1.8193201786        3.0610242991
Mo            4.7273335368        0.9099340670        9.1827702317
S             3.1520504557        1.8196374742        7.6146342002
S             4.7268902739        0.9096990715        4.6290157964
S             4.7268727650        0.9096923127        1.4931735410
S             3.1513160097        1.8178638076       10.7525194468
[...]
S             7.8781320738        6.3678330769        1.4931703360
S             6.3038685431        7.2782299274       10.7525211043
Mo            4.7268792535       10.0065304219       -9.1672481230    0   0   0
Mo            6.3025111524        9.0968738021       -3.0554915260    0   0   0
S             4.7268840634       10.0065452125       -4.6232380477    0   0   0
S             6.3024994256        9.0968439439       -7.6014065489    0   0   0
S             6.3024998793        9.0968450728      -10.7330757790    0   0   0
S             4.7268847312       10.0065459141       -1.4877283294    0   0   0
Mo            4.7269568048       10.0065717436        3.0610200965
Mo            6.3019163962        9.0965048678        9.1832764151
S             4.7262915342       10.0070741576        7.6146271598
S             6.3025316833        9.0968702786        4.6290720036
S             6.3025074076        9.0968568852        1.4932373292
S             4.7282271711       10.0073328422       10.7525215382
Au            1.5773946695        6.3679339975       12.7694006622
End final coordinates

     Writing all to output data dir ./outdir/pwscf.save/

     General routines

     Parallel routines

   This run was terminated on:   2: 9:38  12Nov2023

   JOB DONE.
Application 11391566 resources: utime ~925953s, stime ~7574s, Rss ~3551832, inblocks ~0, outblocks ~50060336