     Program PWSCF v.7.3 starts on 16Mar2024 at  4: 7:47

     Waiting for input...
     Reading input from standard input
Warning: card &CELL ignored
Warning: card / ignored

     Current dimensions of program PWSCF are:
     Max number of different atomic species (ntypx) = 10
     Max number of k-points (npk) =  40000
     Max angular momentum in pseudopotentials (lmaxx) =  4
     file Mo.pbe-spn-kjpaw_psl.1.0.0.UPF: wavefunction(s)  4S 4D renormalized
     file S.pbe-n-kjpaw_psl.1.0.0.UPF: wavefunction(s)  3S 3P renormalized
     file Pd.pbe-spn-kjpaw_psl.1.0.0.UPF: wavefunction(s)  4S 5S 4D renormalized
     file Pt.pbe-spfn-kjpaw_psl.1.0.0.UPF: wavefunction(s)  5P 4F renormalized

     R & G space division:  proc/nbgrp/npool/nimage =      36
     Subspace diagonalization in iterative solution of the eigenvalue problem:
     one sub-group per band group will be used

     Using Slab Decomposition

     bravais-lattice index     =            0
     lattice parameter (alat)  =      23.8199  a.u.
     unit-cell volume          =   33861.0370 (a.u.)^3
     number of atoms/cell      =          194
     number of atomic types    =            4
     number of electrons       =      1714.00
     number of Kohn-Sham states=         1028
     kinetic-energy cutoff     =      77.0000  Ry
     charge density cutoff     =     539.0000  Ry
     scf convergence threshold =      1.0E-06
     mixing beta               =       0.2000
     number of iterations used =            8  plain     mixing
     energy convergence thresh.=      1.0E-04
     force convergence thresh. =      1.0E-03
     Exchange-correlation= SLA  PW   PBX  PBC
                           (   1   4   3   4   0   0   0)
     nstep                     =         1000

     Effective Screening Medium Method
     Boundary Conditions: Vacuum-Slab-Vacuum
     total charge in unit cell        =   0.0000
     grid points for fit at edges     =        4

     celldm(1)=  23.819920  celldm(2)=   0.000000  celldm(3)=   0.000000
     celldm(4)=   0.000000  celldm(5)=   0.000000  celldm(6)=   0.000000

     crystal axes: (cart. coord. in units of alat)
               a(1) = (   1.000000   0.000000   0.000000 )
               a(2) = (  -0.499999   0.866026   0.000000 )
               a(3) = (   0.000000   0.000000   2.893000 )

     reciprocal axes: (cart. coord. in units 2 pi/alat)
               b(1) = (  1.000000  0.577349  0.000000 )
               b(2) = (  0.000000  1.154700  0.000000 )
               b(3) = (  0.000000  0.000000  0.345662 )

     PseudoPot. # 1 for Mo read from file:
     ./pseudo/Mo.pbe-spn-kjpaw_psl.1.0.0.UPF
     MD5 check sum: 317bf72632116215fd98f72de1686f13
     Pseudo is Projector augmented-wave + core cor, Zval = 14.0
     Generated using 'atomic' code by A. Dal Corso  v.7.2
     Shape of augmentation charge: PSQ
     Using radial grid of 1229 points,  6 beta functions with:
                l(1) =   0
                l(2) =   0
                l(3) =   1
                l(4) =   1
                l(5) =   2
                l(6) =   2
     Q(r) pseudized with 0 coefficients

     PseudoPot. # 2 for S  read from file:
     ./pseudo/S.pbe-n-kjpaw_psl.1.0.0.UPF
     MD5 check sum: 8b7b5302570d38d5e87fed6a1065abda
     Pseudo is Projector augmented-wave + core cor, Zval =  6.0
     Generated using 'atomic' code by A. Dal Corso  v.7.2
     Shape of augmentation charge: PSQ
     Using radial grid of 1151 points,  6 beta functions with:
                l(1) =   0
                l(2) =   0
                l(3) =   1
                l(4) =   1
                l(5) =   2
                l(6) =   2
     Q(r) pseudized with 0 coefficients

     PseudoPot. # 3 for Pd read from file:
     ./pseudo/Pd.pbe-spn-kjpaw_psl.1.0.0.UPF
     MD5 check sum: a60571a671f2502b8a6a4569d20a6edb
     Pseudo is Projector augmented-wave + core cor, Zval = 18.0
     Generated using 'atomic' code by A. Dal Corso  v.7.2
     Shape of augmentation charge: PSQ
     Using radial grid of 1235 points,  6 beta functions with:
                l(1) =   0
                l(2) =   0
                l(3) =   1
                l(4) =   1
                l(5) =   2
                l(6) =   2
     Q(r) pseudized with 0 coefficients

     PseudoPot. # 4 for Pt read from file:
     ./pseudo/Pt.pbe-spfn-kjpaw_psl.1.0.0.UPF
     MD5 check sum: 620096ebf4e6ebacc94de60fd67efcb5
     Pseudo is Projector augmented-wave + core cor, Zval = 32.0
     Generated using 'atomic' code by A. Dal Corso  v.7.2
     Shape of augmentation charge: PSQ
     Using radial grid of 1277 points,  8 beta functions with:
                l(1) =   0
                l(2) =   0
                l(3) =   1
                l(4) =   1
                l(5) =   2
                l(6) =   2
                l(7) =   3
                l(8) =   3
     Q(r) pseudized with 0 coefficients

     atomic species   valence    mass     pseudopotential
     Mo               14.00    95.95000     Mo( 1.00)
     S                 6.00    32.06000     S ( 1.00)
     Pd               18.00   106.42000     Pd( 1.00)
     Pt               32.00   195.08400     Pt( 1.00)

     No symmetry found

   Cartesian axes

     site n.     atom                  positions (alat units)
         1        Mo     tau(   1) = (   0.0000010   0.1443372  -0.7272732  )
         2        Mo     tau(   2) = (   0.1249995   0.0721706  -0.2424038  )
         3        S      tau(   3) = (   0.0000015   0.1443386  -0.3667807  )
         4        S      tau(   4) = (   0.1250010   0.0721682  -0.6030489  )
         5        S      tau(   5) = (   0.1250010   0.0721683  -0.8514963  )
         6        S      tau(   6) = (   0.0000015   0.1443389  -0.1180260  )
         7        Mo     tau(   7) = (   0.0000007   0.1443589   0.2424205  )
         8        Mo     tau(   8) = (   0.1250041   0.0720322   0.7266168  )
         9        S      tau(   9) = (   0.0000742   0.1444871   0.6020949  )
        10        S      tau(  10) = (   0.1250024   0.0721701   0.3667478  )
        11        S      tau(  11) = (   0.1250035   0.0721876   0.1180348  )
        12        S      tau(  12) = (  -0.0004118   0.1430864   0.8514340  )
        13        Mo     tau(  13) = (  -0.1249989   0.3608437  -0.7272732  )
        14        Mo     tau(  14) = (   0.0000030   0.2886752  -0.2424042  )
        15        S      tau(  15) = (  -0.1249977   0.3608450  -0.3667802  )
        16        S      tau(  16) = (   0.0000012   0.2886747  -0.6030489  )
        17        S      tau(  17) = (   0.0000012   0.2886748  -0.8514963  )
        18        S      tau(  18) = (  -0.1249977   0.3608454  -0.1180274  )
        19        Mo     tau(  19) = (  -0.1249729   0.3608584   0.2424608  )
        20        Mo     tau(  20) = (  -0.0007193   0.2876626   0.7275440  )
        21        S      tau(  21) = (  -0.1251115   0.3607789   0.6027257  )
        22        S      tau(  22) = (   0.0000621   0.2887099   0.3668377  )
        23        S      tau(  23) = (  -0.0000096   0.2886902   0.1180527  )
        24        S      tau(  24) = (  -0.1254673   0.3605734   0.8517408  )
        25        Mo     tau(  25) = (  -0.2499987   0.5773502  -0.7272732  )
        26        Mo     tau(  26) = (  -0.1249977   0.5051839  -0.2424055  )
        27        S      tau(  27) = (  -0.2499981   0.5773518  -0.3667809  )
        28        S      tau(  28) = (  -0.1249986   0.5051812  -0.6030489  )
        29        S      tau(  29) = (  -0.1249986   0.5051813  -0.8514963  )
        30        S      tau(  30) = (  -0.2499979   0.5773512  -0.1180266  )
        31        Mo     tau(  31) = (  -0.2499795   0.5773389   0.2424205  )
        32        Mo     tau(  32) = (  -0.1262356   0.5050639   0.7275441  )
        33        S      tau(  33) = (  -0.2498323   0.5773390   0.6020948  )
        34        S      tau(  34) = (  -0.1249376   0.5052159   0.3668377  )
        35        S      tau(  35) = (  -0.1249905   0.5051638   0.1180531  )
        36        S      tau(  36) = (  -0.2512883   0.5776183   0.8514340  )
        37        Mo     tau(  37) = (  -0.3749985   0.7938567  -0.7272732  )
        38        Mo     tau(  38) = (  -0.2500001   0.7216874  -0.2424031  )
        39        S      tau(  39) = (  -0.3749980   0.7938584  -0.3667800  )
        40        S      tau(  40) = (  -0.2499984   0.7216877  -0.6030489  )
        41        S      tau(  41) = (  -0.2499984   0.7216878  -0.8514963  )
        42        S      tau(  42) = (  -0.3749982   0.7938585  -0.1180264  )
        43        Mo     tau(  43) = (  -0.3749962   0.7938568   0.2423838  )
        44        Mo     tau(  44) = (  -0.2501148   0.7217588   0.7266170  )
        45        S      tau(  45) = (  -0.3749945   0.7938590   0.6021274  )
        46        S      tau(  46) = (  -0.2499958   0.7216877   0.3667488  )
        47        S      tau(  47) = (  -0.2499810   0.7216794   0.1180323  )
        48        S      tau(  48) = (  -0.3749953   0.7938585   0.8511588  )
        49        Mo     tau(  49) = (   0.2500010   0.1443372  -0.7272732  )
        50        Mo     tau(  50) = (   0.3750034   0.0721723  -0.2424032  )
        51        S      tau(  51) = (   0.2500017   0.1443391  -0.3667788  )
        52        S      tau(  52) = (   0.3750010   0.0721682  -0.6030489  )
        53        S      tau(  53) = (   0.3750010   0.0721683  -0.8514963  )
        54        S      tau(  54) = (   0.2500016   0.1443391  -0.1180271  )
        55        Mo     tau(  55) = (   0.2500054   0.1443594   0.2424211  )
        56        Mo     tau(  56) = (   0.3749279   0.0721263   0.7263991  )
        57        S      tau(  57) = (   0.2499344   0.1444864   0.6020948  )
        58        S      tau(  58) = (   0.3750316   0.0721860   0.3667597  )
        59        S      tau(  59) = (   0.3749924   0.0721644   0.1180346  )
        60        S      tau(  60) = (   0.2504199   0.1430865   0.8514340  )
[...]
       180        S      tau( 180) = (   0.5012979   0.5776190   0.8514332  )
       181        Mo     tau( 181) = (   0.3750016   0.7938567  -0.7272732  )
       182        Mo     tau( 182) = (   0.5000025   0.7216901  -0.2424039  )
       183        S      tau( 183) = (   0.3750019   0.7938578  -0.3667793  )
       184        S      tau( 184) = (   0.5000016   0.7216877  -0.6030489  )
       185        S      tau( 185) = (   0.5000016   0.7216878  -0.8514963  )
       186        S      tau( 186) = (   0.3750020   0.7938579  -0.1180272  )
       187        Mo     tau( 187) = (   0.3749848   0.7938487   0.2424206  )
       188        Mo     tau( 188) = (   0.5001249   0.7217591   0.7266160  )
       189        S      tau( 189) = (   0.3749125   0.7937251   0.6020942  )
       190        S      tau( 190) = (   0.5000021   0.7216868   0.3667472  )
       191        S      tau( 191) = (   0.4999874   0.7216780   0.1180346  )
       192        S      tau( 192) = (   0.3758826   0.7948451   0.8514332  )
       193        Pd     tau( 193) = (   0.1250063   0.5051842   0.9601361  )
       194        Pt     tau( 194) = (   0.3749318   0.0721145   0.9704117  )

     DFT-D3 Dispersion Correction (3-body terms):
       Reference C6 values for interpolation:

[...]
   -40.6192 -40.6184 -40.6184 -40.6131 -40.6122 -40.6119 -40.6100 -40.5976
   -40.5975 -40.5975 -40.5975 -40.5974 -40.5974 -40.5973 -40.5973 -40.5965
   -40.5965 -40.5965 -40.5965 -40.5857 -40.5844 -40.5801 -40.5790 -40.5627
   -40.5627 -40.5627 -40.5627 -40.5627 -40.5627 -40.5627 -40.5627 -40.5618
   -40.5618 -40.5618 -40.5618 -40.5506 -40.5506 -40.5506 -40.5505 -40.5496
   -40.5496 -40.5495 -40.5458 -40.5418 -40.5367 -40.5334 -40.5312 -40.5312
   -40.5312 -40.5312 -40.5303 -40.5303 -40.5247 -40.5152 -40.5142 -40.5142
   -40.5142 -40.5142 -40.5133 -40.5133 -40.5096 -40.4901 -40.4836 -40.4836
   -40.4836 -40.4835 -40.4826 -40.4826 -40.4812 -40.4655 -40.4574 -19.8615
   -19.8350 -19.7863 -19.7771 -19.6864 -19.6795 -19.5817 -19.5791 -19.4113
   -19.4065 -19.3488 -19.3475 -19.2553 -19.2544 -19.1551 -19.1548 -18.8685
   -18.8288 -18.7878 -18.7218 -18.6850 -18.6713 -18.6491 -18.6482 -18.6471
   -18.6371 -18.6228 -18.6139 -18.5789 -18.5772 -18.5655 -18.5619 -18.5271
   -18.5231 -18.4926 -18.4838 -18.4809 -18.4799 -18.4618 -18.4570 -18.4360
   -18.4301 -18.4115 -18.4092 -18.3945 -18.3898 -18.3377 -18.3362 -18.3335
   -18.3307 -18.2972 -18.2830 -18.2606 -18.2556 -18.2458 -18.2255 -18.1905
   -18.1803 -18.1756 -18.1715 -18.1285 -18.1264 -18.1125 -18.1066 -18.0712
   -18.0691 -18.0467 -18.0462 -18.0315 -18.0309 -18.0253 -18.0247 -18.0181
   -18.0159 -17.9995 -17.9985 -17.9953 -17.9950 -17.9862 -17.9852 -17.9773
   -17.9758 -17.9717 -17.9709 -17.9377 -17.9368 -17.9323 -17.9315 -17.9278
   -17.9272 -17.9234 -17.9231 -17.9128 -17.9114 -17.8772 -17.8762 -17.8651
   -17.8645 -17.8581 -17.8575 -17.8206 -17.8204 -17.8117 -17.8106 -17.7859
   -17.7847 -17.7730 -17.7724 -17.7658 -17.7648 -17.7464 -17.7463 -17.7454
   -17.7453 -17.7444 -17.7442 -17.7315 -17.7314 -17.7118 -17.7115 -17.6874
   -17.6870 -17.6680 -17.6675 -17.6536 -17.6532 -17.6461 -17.6461 -11.8907
   -11.7124 -11.6447 -11.6369 -11.5763 -11.4983 -11.4635 -11.4489 -11.4417
   -11.4282 -11.4223 -11.4181 -11.4124 -11.4054 -11.3844 -11.3698 -11.3289
   -11.3144 -11.3086 -11.3036 -11.2771 -11.2694 -11.2535 -11.2486 -11.2351
   -11.2264 -11.2006 -11.1968 -11.1910 -11.1901 -11.1817 -11.1810 -11.1596
   -11.1368 -11.1333 -11.1289 -11.1207 -11.1162 -11.0992 -11.0969 -11.0952
   -11.0938 -11.0745 -11.0738 -11.0509 -11.0492 -11.0155 -11.0037 -11.0002
   -10.9958 -10.9727 -10.9353 -10.9123 -10.8907 -10.8796 -10.8685 -10.8569
   -10.8483 -10.8455 -10.8283 -10.8237 -10.7931 -10.7842 -10.7735 -10.7629
   -10.7614 -10.7539 -10.7483 -10.7385 -10.7379 -10.7377 -10.7365 -10.7319
   -10.7279 -10.7260 -10.7251 -10.7192 -10.7190 -10.7110 -10.7099 -10.7090
[...]
    -3.3075  -3.2814  -3.2771  -3.2737  -3.2727  -3.2689  -3.2676  -3.2613
    -3.2550  -3.2378  -3.2326  -3.2183  -3.2178  -3.2046  -3.2038  -3.2020
    -3.1996  -3.1978  -3.1957  -3.1765  -3.1731  -3.1582  -3.1576  -3.1568
    -3.1456  -3.1412  -3.1369  -3.1362  -3.1346  -3.1193  -3.1144  -3.1053
    -3.1038  -3.0964  -3.0892  -3.0868  -3.0868  -3.0788  -3.0677  -3.0491
    -3.0346  -3.0058  -3.0044  -2.9979  -2.9954  -2.9871  -2.9841  -2.9525
    -2.9506  -2.9485  -2.9474  -2.9470  -2.9462  -2.9389  -2.9371  -2.9333
    -2.9304  -2.9282  -2.9254  -2.9134  -2.9119  -2.9103  -2.9052  -2.9012
    -2.9004  -2.8980  -2.8964  -2.8956  -2.8912  -2.8729  -2.8725  -2.8681
    -2.8677  -2.8566  -2.8559  -2.8473  -2.8400  -2.8296  -2.8229  -2.8215
    -2.8146  -2.8107  -2.8073  -2.7920  -2.7812  -2.7256  -2.7214  -2.7196
    -2.7185  -2.6705  -2.6560  -2.6460  -2.6434  -2.5544  -2.5443  -2.5244
    -2.5240  -2.4967  -2.4893  -2.4843  -2.4705  -2.4678  -2.4558  -2.4557
    -2.4522  -2.4494  -2.4408  -2.3927  -2.3546  -2.3370  -2.3277  -2.3204
    -2.3162  -2.3102  -2.2933  -2.2793

     the Fermi energy is    -4.6439 ev

!    total energy              =  -33980.28227925 Ry
     total all-electron energy =   -667406.135286 Ry
     estimated scf accuracy    <          4.2E-09 Ry
     smearing contrib. (-TS)   =      -0.00000011 Ry
     internal energy E=F+TS    =  -33980.28227914 Ry

     The total energy is F=E-TS. E is the sum of the following terms:
     one-electron contribution = 1161038.51441803 Ry
     hartree contribution      = -580690.87683713 Ry
     xc contribution           =   -2010.79860465 Ry
     ewald contribution        = -591008.74640639 Ry
     DFT-D3 Dispersion         =      -5.43231892 Ry
     one-center paw contrib.   =  -21302.94253008 Ry

     convergence has been achieved in  14 iterations

     negative rho (up, down):  8.969E-04 0.000E+00

     Forces acting on atoms (cartesian axes, Ry/au):

     atom    1 type  1   force =     0.00000034   -0.00000005    0.00068830
     atom    2 type  1   force =     0.00002441   -0.00000816   -0.00000191
     atom    3 type  2   force =     0.00000138    0.00000050    0.00000171
     atom    4 type  2   force =    -0.00000053    0.00000053    0.00161538
     atom    5 type  2   force =    -0.00000087   -0.00000010   -0.00235928
     atom    6 type  2   force =     0.00000294    0.00000103   -0.00000445
     atom    7 type  1   force =     0.00001253    0.00000077    0.00002644
     atom    8 type  1   force =     0.00065017    0.00039506    0.00039398
     atom    9 type  2   force =     0.00025664   -0.00022846    0.00030835
     atom   10 type  2   force =    -0.00002610   -0.00001634   -0.00003912
     atom   11 type  2   force =    -0.00000755    0.00000856   -0.00001428
     atom   12 type  2   force =    -0.00002273    0.00007349   -0.00025287
     atom   13 type  1   force =     0.00000038   -0.00000071    0.00068847
     atom   14 type  1   force =    -0.00001115    0.00001235    0.00000060
     atom   15 type  2   force =     0.00000370    0.00000037    0.00000438
     atom   16 type  2   force =    -0.00000041    0.00000047    0.00161519
     atom   17 type  2   force =    -0.00000079   -0.00000008   -0.00235924
     atom   18 type  2   force =     0.00000432    0.00000354   -0.00000845
     atom   19 type  1   force =    -0.00000212   -0.00000114   -0.00000153
     atom   20 type  1   force =    -0.00006991   -0.00000965   -0.00036249
     atom   21 type  2   force =     0.00012978    0.00007463   -0.00019116
     atom   22 type  2   force =    -0.00002056    0.00001157    0.00004580
     atom   23 type  2   force =     0.00000883   -0.00000638    0.00001654
     atom   24 type  2   force =    -0.00002529   -0.00001488   -0.00068639
     atom   25 type  1   force =     0.00000092   -0.00000097    0.00068831
     atom   26 type  1   force =    -0.00000012   -0.00000794    0.00001212
     atom   27 type  2   force =     0.00000085    0.00000203    0.00000145
     atom   28 type  2   force =    -0.00000038    0.00000035    0.00161524
     atom   29 type  2   force =    -0.00000070   -0.00000021   -0.00235924
     atom   30 type  2   force =     0.00000290   -0.00000024   -0.00000661
     atom   31 type  1   force =     0.00000711    0.00001018    0.00002633
     atom   32 type  1   force =    -0.00004388   -0.00005604   -0.00036150
     atom   33 type  2   force =    -0.00006989    0.00033484    0.00030713
     atom   34 type  2   force =    -0.00000035   -0.00002314    0.00004504
     atom   35 type  2   force =    -0.00000151    0.00001079    0.00001627
     atom   36 type  2   force =     0.00005159   -0.00005679   -0.00025264
     atom   37 type  1   force =     0.00000139   -0.00000045    0.00068880
     atom   38 type  1   force =     0.00002511    0.00002237   -0.00001001
     atom   39 type  2   force =     0.00000033    0.00000155    0.00000537
     atom   40 type  2   force =    -0.00000034    0.00000047    0.00161538
     atom   41 type  2   force =    -0.00000073   -0.00000014   -0.00235928
     atom   42 type  2   force =     0.00000128    0.00000242   -0.00000569
     atom   43 type  1   force =    -0.00000037   -0.00000018    0.00000283
     atom   44 type  1   force =     0.00066763    0.00036629    0.00039501
     atom   45 type  2   force =     0.00075698    0.00043829    0.00092986
     atom   46 type  2   force =    -0.00002781   -0.00001481   -0.00003949
     atom   47 type  2   force =     0.00000325   -0.00001099   -0.00001314
     atom   48 type  2   force =    -0.00005006   -0.00002890    0.00016081
     atom   49 type  1   force =     0.00000120   -0.00000035    0.00068859
     atom   50 type  1   force =    -0.00002371   -0.00002656   -0.00000157
     atom   51 type  2   force =    -0.00000026    0.00000252    0.00000679
     atom   52 type  2   force =    -0.00000068    0.00000037    0.00161576
     atom   53 type  2   force =    -0.00000081   -0.00000009   -0.00235941
     atom   54 type  2   force =    -0.00000340    0.00000378   -0.00000108
     atom   55 type  1   force =     0.00003252   -0.00001821    0.00003125
     atom   56 type  1   force =     0.00002523    0.00001531    0.00075137
     atom   57 type  2   force =    -0.00004379    0.00012830   -0.00047374
     atom   58 type  2   force =    -0.00000151   -0.00000014    0.00009309
     atom   59 type  2   force =    -0.00000199   -0.00000098    0.00002497
     atom   60 type  2   force =    -0.00000766   -0.00017933   -0.00002382
[...]
     atom  180 type  2   force =     0.00000718    0.00002495   -0.00007433
     atom  181 type  1   force =     0.00000101   -0.00000051    0.00068851
     atom  182 type  1   force =    -0.00000743   -0.00000819   -0.00000078
     atom  183 type  2   force =    -0.00000237   -0.00000106    0.00000479
     atom  184 type  2   force =    -0.00000058    0.00000039    0.00161538
     atom  185 type  2   force =    -0.00000070   -0.00000009   -0.00235933
     atom  186 type  2   force =    -0.00000240   -0.00000321   -0.00000200
     atom  187 type  1   force =    -0.00000577    0.00000826    0.00002133
     atom  188 type  1   force =    -0.00004403   -0.00002622   -0.00024213
     atom  189 type  2   force =    -0.00013143    0.00051638   -0.00027240
     atom  190 type  2   force =    -0.00000946   -0.00000573    0.00002537
     atom  191 type  2   force =    -0.00000277   -0.00000196   -0.00000124
     atom  192 type  2   force =     0.00002583   -0.00000599   -0.00007505
     atom  193 type  3   force =     0.00001108    0.00000732   -0.00026861
     atom  194 type  4   force =    -0.00032825   -0.00019076   -0.00025414

     Total force =     0.004073     Total SCF correction =     0.000354
     Energy error            =      4.6E-05 Ry
     Gradient error          =      9.7E-04 Ry/Bohr

     bfgs converged in  16 scf cycles and  15 bfgs steps
     (criteria: energy <  1.0E-04 Ry, force <  1.0E-03 Ry/Bohr)

     End of BFGS Geometry Optimization

     Final energy             =  -33980.2822792489 Ry

     File ./outdir/pwscf.bfgs deleted, as requested
Begin final coordinates

ATOMIC_POSITIONS (angstrom)
Mo               0.0000119917        1.8193638619       -9.1672481230    0   0   0
Mo               1.5756136568        0.9097075315       -3.0554901653    0   0   0
S                0.0000188998        1.8193822938       -4.6232556019    0   0   0
S                1.5756321638        0.9096773839       -7.6014065489    0   0   0
S                1.5756326175        0.9096785128      -10.7330757790    0   0   0
S                0.0000189190        1.8193860094       -1.4877129945    0   0   0
Mo               0.0002324912        1.8194329012        3.0562227127
Mo               1.5558651487        0.9025135145        9.1621593106
S                0.0019961714        1.8223061536        7.5779862416
S                1.5764177018        0.9100039935        4.6239726012
S                1.5757545523        0.9097234179        1.4884197701
S               -0.0236238734        1.8071351186       10.7276626743
Mo              -1.5756053507        4.5484193819       -9.1672481230    0   0   0
Mo               0.0000378379        3.6387394919       -3.0554952701    0   0   0
S               -1.5755913433        4.5484363582       -4.6232494962    0   0   0
S                0.0000148214        3.6387329039       -7.6014065489    0   0   0
S                0.0000152751        3.6387340328      -10.7330757790    0   0   0
S               -1.5755906502        4.5484413613       -1.4877305502    0   0   0
Mo              -1.5753415394        4.5485662962        3.0559684301
Mo              -0.0103700561        3.6280348738        9.1629032767
S               -1.5766341115        4.5478235610        7.5885042073
S                0.0006385835        3.6391725439        4.6236496846
S                0.0001822437        3.6387382513        1.4882798158
S               -1.5818581452        4.5448101873       10.7281929943
Mo              -3.1512226931        7.2774749019       -9.1672481230    0   0   0
Mo              -1.5755910988        6.3678216792       -3.0555115988    0   0   0
S               -3.1512162438        7.2774954350       -4.6232578178    0   0   0
S               -1.5756025210        6.3677884239       -7.6014065489    0   0   0
S               -1.5756020673        6.3677895528      -10.7330757790    0   0   0
S               -3.1512127704        7.2774877076       -1.4877200710    0   0   0
Mo              -3.1510471150        7.2776243498        3.0562223177
Mo              -1.5900597170        6.3641440162        9.1628999540
S               -3.1476821073        7.2777225175        7.5779851650
S               -1.5749060687        6.3681020457        4.6236510167
S               -1.5755093279        6.3679255721        1.4882805695
S               -3.1736289245        7.2631178709       10.7276597059
Mo              -4.7268400355       10.0065304219       -9.1672481230    0   0   0
Mo              -3.1512405618        9.0968403586       -3.0554816746    0   0   0
S               -4.7268341792       10.0065523623       -4.6232463762    0   0   0
S               -3.1512198634        9.0968439439       -7.6014065489    0   0   0
S               -3.1512194097        9.0968450728      -10.7330757790    0   0   0
S               -4.7268370797       10.0065537885       -1.4877176751    0   0   0
Mo              -4.7265818886       10.0066727180        3.0562075132
Mo              -3.1673071085        9.0833057459        9.1621564720
S               -4.7305554897       10.0043821309        7.5849648605
S               -3.1505385958        9.0973561130        4.6239731114
S               -3.1511140863        9.0969220669        1.4884160534
S               -4.7341854983       10.0022867228       10.7266081133
Mo               3.1512517547        1.8193638619       -9.1672481230    0   0   0
Mo               4.7269020221        0.9097289540       -3.0554823951    0   0   0
S                3.1512612351        1.8193882564       -4.6232320683    0   0   0
S                4.7268719268        0.9096773839       -7.6014065489    0   0   0
S                4.7268723805        0.9096785128      -10.7330757790    0   0   0
S                3.1512592485        1.8193890201       -1.4877261251    0   0   0
Mo               3.1515517991        1.8194421063        3.0559981783
Mo               4.7265463289        0.9094860284        9.2173482146
S                3.1748239426        1.8071759271        7.6394333418
S                4.7271167610        0.9098137232        4.6238764059
S                4.7268553979        0.9096644700        1.4879086736
S                3.0244412204        1.8776098154       10.8039919838
[...]
S                6.3207846942        7.2801326901       10.7265462545
Mo               4.7268792535       10.0065304219       -9.1672481230    0   0   0
Mo               6.3025111524        9.0968738021       -3.0554915260    0   0   0
S                4.7268840634       10.0065452125       -4.6232380477    0   0   0
S                6.3024994256        9.0968439439       -7.6014065489    0   0   0
S                6.3024998793        9.0968450728      -10.7330757790    0   0   0
S                4.7268847312       10.0065459141       -1.4877283294    0   0   0
Mo               4.7266921489       10.0063425029        3.0557357153
Mo               6.3011913712        9.0960919055        9.1561793004
S                4.7235759959        9.9996159335        7.5841384774
S                6.3023726207        9.0967663644        4.6230342236
S                6.3026736882        9.0969414479        1.4881506189
S                4.7383223414       10.0210397787       10.7265474895
Pd               1.5842110181        6.3727339072       12.1107601630
Pt               4.7396132033        0.9170359315       11.9727402302
End final coordinates

     Writing all to output data dir ./outdir/pwscf.save/ :
     XML data file, charge density, pseudopotentials, collected wavefunctions

     General routines

     Parallel routines

   This run was terminated on:  19:17:33  17Mar2024

   JOB DONE.