     Program PWSCF v.7.2 starts on 14Aug2023 at 15:14:25

     Waiting for input...
     Reading input from standard input
Warning: card &CELL ignored
Warning: card / ignored

     Current dimensions of program PWSCF are:
     Max number of different atomic species (ntypx) = 10
     Max number of k-points (npk) =  40000
     Max angular momentum in pseudopotentials (lmaxx) =  4
     file Mo.pbe-spn-kjpaw_psl.1.0.0.UPF: wavefunction(s)  4S 4D renormalized
     file S.pbe-n-kjpaw_psl.1.0.0.UPF: wavefunction(s)  3S 3P renormalized
     file Pd.pbe-spn-kjpaw_psl.1.0.0.UPF: wavefunction(s)  4S 5S 4D renormalized

     R & G space division:  proc/nbgrp/npool/nimage =      36
     Subspace diagonalization in iterative solution of the eigenvalue problem:
     one sub-group per band group will be used

     Using Slab Decomposition

     bravais-lattice index     =            0
     lattice parameter (alat)  =      23.8199  a.u.
     unit-cell volume          =   33861.0370 (a.u.)^3
     number of atoms/cell      =          193
     number of atomic types    =            3
     number of electrons       =      1682.00
     number of Kohn-Sham states=         1009
     kinetic-energy cutoff     =      77.0000  Ry
     charge density cutoff     =     539.0000  Ry
     scf convergence threshold =      1.0E-06
     mixing beta               =       0.2000
     number of iterations used =            8  plain     mixing
     energy convergence thresh.=      1.0E-04
     force convergence thresh. =      1.0E-03
     Exchange-correlation= SLA  PW   PBX  PBC
                           (   1   4   3   4   0   0   0)
     nstep                     =         1000

     Effective Screening Medium Method
     Boundary Conditions: Vacuum-Slab-Vacuum
     total charge in unit cell        =   0.0000
     grid points for fit at edges     =        4

     celldm(1)=  23.819920  celldm(2)=   0.000000  celldm(3)=   0.000000
     celldm(4)=   0.000000  celldm(5)=   0.000000  celldm(6)=   0.000000

     crystal axes: (cart. coord. in units of alat)
               a(1) = (   1.000000   0.000000   0.000000 )
               a(2) = (  -0.499999   0.866026   0.000000 )
               a(3) = (   0.000000   0.000000   2.893000 )

     reciprocal axes: (cart. coord. in units 2 pi/alat)
               b(1) = (  1.000000  0.577349  0.000000 )
               b(2) = (  0.000000  1.154700  0.000000 )
               b(3) = (  0.000000  0.000000  0.345662 )

     PseudoPot. # 1 for Mo read from file:
     ./pseudo/Mo.pbe-spn-kjpaw_psl.1.0.0.UPF
     MD5 check sum: 317bf72632116215fd98f72de1686f13
     Pseudo is Projector augmented-wave + core cor, Zval = 14.0
     Generated using 'atomic' code by A. Dal Corso  v.7.2
     Shape of augmentation charge: PSQ
     Using radial grid of 1229 points,  6 beta functions with:
                l(1) =   0
                l(2) =   0
                l(3) =   1
                l(4) =   1
                l(5) =   2
                l(6) =   2
     Q(r) pseudized with 0 coefficients

     PseudoPot. # 2 for S  read from file:
     ./pseudo/S.pbe-n-kjpaw_psl.1.0.0.UPF
     MD5 check sum: 8b7b5302570d38d5e87fed6a1065abda
     Pseudo is Projector augmented-wave + core cor, Zval =  6.0
     Generated using 'atomic' code by A. Dal Corso  v.7.2
     Shape of augmentation charge: PSQ
     Using radial grid of 1151 points,  6 beta functions with:
                l(1) =   0
                l(2) =   0
                l(3) =   1
                l(4) =   1
                l(5) =   2
                l(6) =   2
     Q(r) pseudized with 0 coefficients

     PseudoPot. # 3 for Pd read from file:
     ./pseudo/Pd.pbe-spn-kjpaw_psl.1.0.0.UPF
     MD5 check sum: a60571a671f2502b8a6a4569d20a6edb
     Pseudo is Projector augmented-wave + core cor, Zval = 18.0
     Generated using 'atomic' code by A. Dal Corso  v.7.2
     Shape of augmentation charge: PSQ
     Using radial grid of 1235 points,  6 beta functions with:
                l(1) =   0
                l(2) =   0
                l(3) =   1
                l(4) =   1
                l(5) =   2
                l(6) =   2
     Q(r) pseudized with 0 coefficients

     atomic species   valence    mass     pseudopotential
        Mo            14.00    95.95000     Mo( 1.00)
        S              6.00    32.06000     S ( 1.00)
        Pd            18.00   106.42000     Pd( 1.00)

     No symmetry found

   Cartesian axes

     site n.     atom                  positions (alat units)
         1           Mo  tau(   1) = (   0.0000010   0.1443372  -0.7272732  )
         2           Mo  tau(   2) = (   0.1249995   0.0721706  -0.2424038  )
         3           S   tau(   3) = (   0.0000015   0.1443386  -0.3667807  )
         4           S   tau(   4) = (   0.1250010   0.0721682  -0.6030489  )
         5           S   tau(   5) = (   0.1250010   0.0721683  -0.8514963  )
         6           S   tau(   6) = (   0.0000015   0.1443389  -0.1180260  )
         7           Mo  tau(   7) = (   0.0000041   0.1443345   0.2424023  )
         8           Mo  tau(   8) = (   0.1250030   0.0721700   0.7272501  )
         9           S   tau(   9) = (   0.0000038   0.1443392   0.6028599  )
        10           S   tau(  10) = (   0.1250037   0.0721683   0.3667755  )
        11           S   tau(  11) = (   0.1250033   0.0721688   0.1180247  )
        12           S   tau(  12) = (   0.0000038   0.1443391   0.8517304  )
        13           Mo  tau(  13) = (  -0.1249989   0.3608437  -0.7272732  )
        14           Mo  tau(  14) = (   0.0000030   0.2886752  -0.2424042  )
        15           S   tau(  15) = (  -0.1249977   0.3608450  -0.3667802  )
        16           S   tau(  16) = (   0.0000012   0.2886747  -0.6030489  )
        17           S   tau(  17) = (   0.0000012   0.2886748  -0.8514963  )
        18           S   tau(  18) = (  -0.1249977   0.3608454  -0.1180274  )
        19           Mo  tau(  19) = (  -0.1249981   0.3608444   0.2424011  )
        20           Mo  tau(  20) = (   0.0000038   0.2886765   0.7272499  )
        21           S   tau(  21) = (  -0.1249961   0.3608457   0.6028596  )
        22           S   tau(  22) = (   0.0000037   0.2886752   0.3667739  )
        23           S   tau(  23) = (   0.0000035   0.2886747   0.1180263  )
        24           S   tau(  24) = (  -0.1249962   0.3608459   0.8517305  )
        25           Mo  tau(  25) = (  -0.2499987   0.5773502  -0.7272732  )
        26           Mo  tau(  26) = (  -0.1249977   0.5051839  -0.2424055  )
        27           S   tau(  27) = (  -0.2499981   0.5773518  -0.3667809  )
        28           S   tau(  28) = (  -0.1249986   0.5051812  -0.6030489  )
        29           S   tau(  29) = (  -0.1249986   0.5051813  -0.8514963  )
        30           S   tau(  30) = (  -0.2499979   0.5773512  -0.1180266  )
        31           Mo  tau(  31) = (  -0.2499983   0.5773503   0.2424020  )
        32           Mo  tau(  32) = (  -0.1249962   0.5051830   0.7272501  )
        33           S   tau(  33) = (  -0.2499958   0.5773522   0.6028593  )
        34           S   tau(  34) = (  -0.1249963   0.5051821   0.3667746  )
        35           S   tau(  35) = (  -0.1249968   0.5051820   0.1180254  )
        36           S   tau(  36) = (  -0.2499959   0.5773522   0.8517307  )
        37           Mo  tau(  37) = (  -0.3749985   0.7938567  -0.7272732  )
        38           Mo  tau(  38) = (  -0.2500001   0.7216874  -0.2424031  )
        39           S   tau(  39) = (  -0.3749980   0.7938584  -0.3667800  )
        40           S   tau(  40) = (  -0.2499984   0.7216877  -0.6030489  )
        41           S   tau(  41) = (  -0.2499984   0.7216878  -0.8514963  )
        42           S   tau(  42) = (  -0.3749982   0.7938585  -0.1180264  )
        43           Mo  tau(  43) = (  -0.3749976   0.7938584   0.2424002  )
        44           Mo  tau(  44) = (  -0.2499965   0.7216896   0.7272502  )
        45           S   tau(  45) = (  -0.3749954   0.7938586   0.6028596  )
        46           S   tau(  46) = (  -0.2499962   0.7216890   0.3667741  )
        47           S   tau(  47) = (  -0.2499961   0.7216884   0.1180258  )
        48           S   tau(  48) = (  -0.3749955   0.7938585   0.8517305  )
        49           Mo  tau(  49) = (   0.2500010   0.1443372  -0.7272732  )
        50           Mo  tau(  50) = (   0.3750034   0.0721723  -0.2424032  )
        51           S   tau(  51) = (   0.2500017   0.1443391  -0.3667788  )
        52           S   tau(  52) = (   0.3750010   0.0721682  -0.6030489  )
        53           S   tau(  53) = (   0.3750010   0.0721683  -0.8514963  )
        54           S   tau(  54) = (   0.2500016   0.1443391  -0.1180271  )
        55           Mo  tau(  55) = (   0.2500037   0.1443371   0.2424008  )
        56           Mo  tau(  56) = (   0.3750049   0.0721708   0.7272499  )
        57           S   tau(  57) = (   0.2500041   0.1443391   0.6028593  )
        58           S   tau(  58) = (   0.3750026   0.0721682   0.3667763  )
        59           S   tau(  59) = (   0.3750033   0.0721687   0.1180242  )
        60           S   tau(  60) = (   0.2500040   0.1443392   0.8517310  )
[...]
       179           S   tau( 179) = (   0.6250040   0.5051821   0.1180241  )
       180           S   tau( 180) = (   0.5000045   0.5773523   0.8517308  )
       181           Mo  tau( 181) = (   0.3750016   0.7938567  -0.7272732  )
       182           Mo  tau( 182) = (   0.5000025   0.7216901  -0.2424039  )
       183           S   tau( 183) = (   0.3750019   0.7938578  -0.3667793  )
       184           S   tau( 184) = (   0.5000016   0.7216877  -0.6030489  )
       185           S   tau( 185) = (   0.5000016   0.7216878  -0.8514963  )
       186           S   tau( 186) = (   0.3750020   0.7938579  -0.1180272  )
       187           Mo  tau( 187) = (   0.3750057   0.7938586   0.2424015  )
       188           Mo  tau( 188) = (   0.5000052   0.7216902   0.7272503  )
       189           S   tau( 189) = (   0.3750045   0.7938588   0.6028592  )
       190           S   tau( 190) = (   0.5000042   0.7216887   0.3667757  )
       191           S   tau( 191) = (   0.5000039   0.7216887   0.1180242  )
       192           S   tau( 192) = (   0.3750047   0.7938587   0.8517308  )
       193           Pd  tau( 193) = (   0.1250302   0.5051980   0.9707291  )

     DFT-D3 Dispersion Correction (3-body terms):
       Reference C6 values for interpolation:

         atom   Coordination number   C6
         S          0.000           268.01
         S          0.995           261.99
         S          1.990           251.62
         Mo         0.000          1691.79
         Mo         1.942          1004.01
         Mo        11.056           674.22
         Pd         0.000          1217.01
         Pd         1.863           573.90
         Pd         5.710           531.75

       Values used:

         atom   Coordination number  R0_AB[au]  C6      C8
         Mo        10.208            3.547    674.22  77634.20
         Mo        10.221            3.547    674.22  77634.20
         S          3.858            3.128    251.62  12327.25
         S          3.859            3.128    251.62  12327.25
[...]
     atom   14 type  1   force =     0.00000000    0.00000000    0.00000000
     atom   15 type  2   force =     0.00000000    0.00000000    0.00000000
     atom   16 type  2   force =     0.00000000    0.00000000    0.00000000
     atom   17 type  2   force =     0.00000000    0.00000000    0.00000000
     atom   18 type  2   force =     0.00000000    0.00000000    0.00000000
     atom   19 type  1   force =     0.00001441    0.00000666    0.00000901
     atom   20 type  1   force =    -0.00000843   -0.00000997    0.00001579
     atom   21 type  2   force =     0.00000153    0.00000071   -0.00000139
     atom   22 type  2   force =     0.00000191   -0.00000232   -0.00000324
     atom   23 type  2   force =     0.00000126   -0.00000338    0.00000072
     atom   24 type  2   force =    -0.00000587   -0.00000310    0.00000987
     atom   25 type  1   force =     0.00000000    0.00000000    0.00000000
     atom   26 type  1   force =     0.00000000    0.00000000    0.00000000
     atom   27 type  2   force =     0.00000000    0.00000000    0.00000000
     atom   28 type  2   force =     0.00000000    0.00000000    0.00000000
     atom   29 type  2   force =     0.00000000    0.00000000    0.00000000
     atom   30 type  2   force =     0.00000000    0.00000000    0.00000000
     atom   31 type  1   force =     0.00000110    0.00000885    0.00000861
     atom   32 type  1   force =    -0.00001393   -0.00000323    0.00001687
     atom   33 type  2   force =     0.00000196    0.00000172   -0.00000475
     atom   34 type  2   force =    -0.00000060    0.00000246   -0.00000291
     atom   35 type  2   force =    -0.00000150    0.00000249    0.00000041
     atom   36 type  2   force =    -0.00000895    0.00000081    0.00000112
     atom   37 type  1   force =     0.00000000    0.00000000    0.00000000
     atom   38 type  1   force =     0.00000000    0.00000000    0.00000000
     atom   39 type  2   force =     0.00000000    0.00000000    0.00000000
     atom   40 type  2   force =     0.00000000    0.00000000    0.00000000
     atom   41 type  2   force =     0.00000000    0.00000000    0.00000000
     atom   42 type  2   force =     0.00000000    0.00000000    0.00000000
     atom   43 type  1   force =    -0.00000185    0.00000072   -0.00001497
     atom   44 type  1   force =    -0.00001082    0.00000524    0.00003255
     atom   45 type  2   force =    -0.00000012    0.00000034   -0.00000876
     atom   46 type  2   force =     0.00000036    0.00000025    0.00000055
     atom   47 type  2   force =    -0.00000623    0.00000392   -0.00000101
     atom   48 type  2   force =     0.00000016   -0.00000018   -0.00000221
     atom   49 type  1   force =     0.00000000    0.00000000    0.00000000
     atom   50 type  1   force =     0.00000000    0.00000000    0.00000000
     atom   51 type  2   force =     0.00000000    0.00000000    0.00000000
     atom   52 type  2   force =     0.00000000    0.00000000    0.00000000
     atom   53 type  2   force =     0.00000000    0.00000000    0.00000000
     atom   54 type  2   force =     0.00000000    0.00000000    0.00000000
     atom   55 type  1   force =    -0.00000897   -0.00000376    0.00000893
     atom   56 type  1   force =    -0.00001363   -0.00000639    0.00004262
     atom   57 type  2   force =    -0.00000289    0.00000120   -0.00000493
     atom   58 type  2   force =    -0.00000285   -0.00000177   -0.00000059
     atom   59 type  2   force =    -0.00000149   -0.00000116   -0.00000160
     atom   60 type  2   force =     0.00000360   -0.00000783    0.00000052
[...]
     atom  179 type  2   force =     0.00000020    0.00000198   -0.00000214
     atom  180 type  2   force =     0.00000880    0.00000042    0.00000088
     atom  181 type  1   force =     0.00000000    0.00000000    0.00000000
     atom  182 type  1   force =     0.00000000    0.00000000    0.00000000
     atom  183 type  2   force =     0.00000000    0.00000000    0.00000000
     atom  184 type  2   force =     0.00000000    0.00000000    0.00000000
     atom  185 type  2   force =     0.00000000    0.00000000    0.00000000
     atom  186 type  2   force =     0.00000000    0.00000000    0.00000000
     atom  187 type  1   force =     0.00000724   -0.00000533    0.00000910
     atom  188 type  1   force =     0.00001047    0.00000457    0.00003192
     atom  189 type  2   force =     0.00000031   -0.00000293   -0.00000540
     atom  190 type  2   force =    -0.00000078    0.00000028   -0.00000037
     atom  191 type  2   force =     0.00000563    0.00000405    0.00000001
     atom  192 type  2   force =     0.00000525    0.00000671    0.00000136
     atom  193 type  3   force =     0.00000190   -0.00000157   -0.00021537

     DFT-D3 dispersion contribution to forces:
     atom    1 type  1   force =     0.00000001    0.00000003    0.00255980
     atom    2 type  1   force =     0.00000000    0.00000003    0.00001493
     atom    3 type  2   force =     0.00000001   -0.00000001   -0.00003306
     atom    4 type  2   force =    -0.00000001   -0.00000001    0.00017152
     atom    5 type  2   force =    -0.00000000   -0.00000003    0.00441529
     atom    6 type  2   force =    -0.00000005    0.00000013    0.00009763
     atom    7 type  1   force =    -0.00000396   -0.00000854   -0.00000839
     atom    8 type  1   force =    -0.00000000    0.00008306   -0.00245657
     atom    9 type  2   force =     0.00000513   -0.00000491   -0.00012219
     atom   10 type  2   force =     0.00000001   -0.00001925    0.00003369
     atom   11 type  2   force =    -0.00000003   -0.00000060   -0.00009583
     atom   12 type  2   force =     0.00009377    0.00026122   -0.00431454
     atom   13 type  1   force =     0.00000003    0.00000001    0.00255984
     atom   14 type  1   force =     0.00000005    0.00000008    0.00001507
     atom   15 type  2   force =     0.00000000   -0.00000001   -0.00003301
     atom   16 type  2   force =     0.00000001    0.00000000    0.00017155
     atom   17 type  2   force =    -0.00000001    0.00000001    0.00441522
     atom   18 type  2   force =     0.00000024    0.00000012    0.00009764
     atom   19 type  1   force =    -0.00001209   -0.00000698   -0.00001920
     atom   20 type  1   force =     0.00010816    0.00020193   -0.00226244
     atom   21 type  2   force =     0.00002409    0.00001391   -0.00007933
     atom   22 type  2   force =    -0.00000560   -0.00001904    0.00003183
     atom   23 type  2   force =     0.00000038   -0.00000053   -0.00009886
     atom   24 type  2   force =     0.00033809    0.00019520   -0.00424573
     atom   25 type  1   force =     0.00000003   -0.00000002    0.00255980
     atom   26 type  1   force =     0.00000012   -0.00000002    0.00001505
     atom   27 type  2   force =     0.00000000    0.00000001   -0.00003307
     atom   28 type  2   force =     0.00000001   -0.00000000    0.00017154
     atom   29 type  2   force =     0.00000000   -0.00000001    0.00441522
     atom   30 type  2   force =     0.00000008   -0.00000011    0.00009764
     atom   31 type  1   force =    -0.00000940    0.00000082   -0.00000837
     atom   32 type  1   force =     0.00022894   -0.00000729   -0.00226244
     atom   33 type  2   force =    -0.00000170    0.00000689   -0.00012219
     atom   34 type  2   force =    -0.00001930    0.00000466    0.00003183
     atom   35 type  2   force =    -0.00000028    0.00000057   -0.00009885
     atom   36 type  2   force =     0.00027311   -0.00004940   -0.00431454
     atom   37 type  1   force =    -0.00000000   -0.00000000    0.00255984
     atom   38 type  1   force =     0.00000000    0.00000002    0.00001495
     atom   39 type  2   force =     0.00000001    0.00000001   -0.00003302
     atom   40 type  2   force =    -0.00000001    0.00000000    0.00017152
     atom   41 type  2   force =    -0.00000003    0.00000002    0.00441529
     atom   42 type  2   force =    -0.00000000    0.00000002    0.00009766
     atom   43 type  1   force =    -0.00000002   -0.00000002    0.00000369
     atom   44 type  1   force =     0.00007193   -0.00004153   -0.00245657
     atom   45 type  2   force =    -0.00000003   -0.00000002   -0.00015296
     atom   46 type  2   force =    -0.00001669    0.00000963    0.00003367
     atom   47 type  2   force =    -0.00000054    0.00000029   -0.00009581
     atom   48 type  2   force =     0.00000001    0.00000000   -0.00441038
     atom   49 type  1   force =    -0.00000001    0.00000004    0.00255980
     atom   50 type  1   force =     0.00000003    0.00000004    0.00001499
     atom   51 type  2   force =    -0.00000002   -0.00000003   -0.00003306
     atom   52 type  2   force =     0.00000001    0.00000001    0.00017155
     atom   53 type  2   force =    -0.00000000    0.00000000    0.00441528
     atom   54 type  2   force =     0.00000006    0.00000014    0.00009764
     atom   55 type  1   force =     0.00000397   -0.00000850   -0.00000838
     atom   56 type  1   force =    -0.00001150   -0.00000664   -0.00247156
     atom   57 type  2   force =    -0.00000513   -0.00000489   -0.00012220
     atom   58 type  2   force =    -0.00000043   -0.00000023    0.00004014
     atom   59 type  2   force =    -0.00000022   -0.00000013   -0.00009536
     atom   60 type  2   force =    -0.00009377    0.00026122   -0.00431454
[...]
     atom  179 type  2   force =    -0.00000002    0.00000030   -0.00009535
     atom  180 type  2   force =    -0.00027311   -0.00004942   -0.00431453
     atom  181 type  1   force =    -0.00000003   -0.00000003    0.00255981
     atom  182 type  1   force =    -0.00000007   -0.00000002    0.00001495
     atom  183 type  2   force =    -0.00000001   -0.00000001   -0.00003305
     atom  184 type  2   force =     0.00000001    0.00000001    0.00017154
     atom  185 type  2   force =     0.00000003    0.00000002    0.00441529
     atom  186 type  2   force =    -0.00000017   -0.00000005    0.00009763
     atom  187 type  1   force =     0.00000541    0.00000766   -0.00000839
     atom  188 type  1   force =    -0.00007194   -0.00004154   -0.00245658
     atom  189 type  2   force =     0.00000682   -0.00000202   -0.00012220
     atom  190 type  2   force =     0.00001667    0.00000962    0.00003368
     atom  191 type  2   force =     0.00000051    0.00000031   -0.00009583
     atom  192 type  2   force =    -0.00017935   -0.00021181   -0.00431453
     atom  193 type  3   force =     0.00000013    0.00000006    0.00216145

     Total force =     0.003113     Total SCF correction =     0.000278
     Energy error            =      3.6E-05 Ry
     Gradient error          =      8.8E-04 Ry/Bohr

     bfgs converged in  15 scf cycles and  14 bfgs steps
     (criteria: energy <  1.0E-04 Ry, force <  1.0E-03 Ry/Bohr)

     End of BFGS Geometry Optimization

     Final energy             =  -32305.6628339396 Ry

     File ./outdir/pwscf.bfgs deleted, as requested
Begin final coordinates

ATOMIC_POSITIONS (angstrom)
Mo            0.0000119917        1.8193638619       -9.1672481230    0   0   0
Mo            1.5756136568        0.9097075315       -3.0554901653    0   0   0
S             0.0000188998        1.8193822938       -4.6232556019    0   0   0
S             1.5756321638        0.9096773839       -7.6014065489    0   0   0
S             1.5756326175        0.9096785128      -10.7330757790    0   0   0
S             0.0000189190        1.8193860094       -1.4877129945    0   0   0
Mo            0.0000089900        1.8196386097        3.0557008815
Mo            1.5756712595        0.9079632209        9.1589751230
S             0.0009353905        1.8212533206        7.5893818940
S             1.5756499392        0.9097005877        4.6228409336
S             1.5756644275        0.9099214128        1.4878231910
S            -0.0051910362        1.8035985404       10.7322900276
Mo           -1.5756053507        4.5484193819       -9.1672481230    0   0   0
Mo            0.0000378379        3.6387394919       -3.0554952701    0   0   0
S            -1.5755913433        4.5484363582       -4.6232494962    0   0   0
S             0.0000148214        3.6387329039       -7.6014065489    0   0   0
S             0.0000152751        3.6387340328      -10.7330757790    0   0   0
S            -1.5755906502        4.5484413613       -1.4877305502    0   0   0
Mo           -1.5752778008        4.5486057066        3.0562080205
Mo           -0.0090665171        3.6259748888        9.1706626747
S            -1.5770248274        4.5476031385        7.5973327718
S             0.0007826250        3.6391763476        4.6239735360
S            -0.0001212860        3.6389277793        1.4880498653
S            -1.5815106561        4.5450131703       10.7361572491
Mo           -3.1512226931        7.2774749019       -9.1672481230    0   0   0
Mo           -1.5755910988        6.3678216792       -3.0555115988    0   0   0
S            -3.1512162438        7.2774954350       -4.6232578178    0   0   0
S            -1.5756025210        6.3677884239       -7.6014065489    0   0   0
S            -1.5756020673        6.3677895528      -10.7330757790    0   0   0
S            -3.1512127704        7.2774877076       -1.4877200710    0   0   0
Mo           -3.1509817969        7.2773334748        3.0557003805
Mo           -1.5911941115        6.3663099471        9.1706635381
S            -3.1491256445        7.2773337757        7.5893802069
S            -1.5748334332        6.3682252510        4.6239740129
S            -1.5754997023        6.3675686135        1.4880545580
S            -3.1674792062        7.2808546006       10.7322910732
Mo           -4.7268400355       10.0065304219       -9.1672481230    0   0   0
Mo           -3.1512405618        9.0968403586       -3.0554816746    0   0   0
S            -4.7268341792       10.0065523623       -4.6232463762    0   0   0
S            -3.1512198634        9.0968439439       -7.6014065489    0   0   0
S            -3.1512194097        9.0968450728      -10.7330757790    0   0   0
S            -4.7268370797       10.0065537885       -1.4877176751    0   0   0
Mo           -4.7268114491       10.0065323747        3.0552376528
Mo           -3.1526863190        9.0977400771        9.1589778465
S            -4.7267896256       10.0065602101        7.5897916313
S            -3.1511861525        9.0968442445        4.6228537043
S            -3.1509998706        9.0967394890        1.4877926544
S            -4.7268008825       10.0065536973       10.7288215308
Mo            3.1512517547        1.8193638619       -9.1672481230    0   0   0
Mo            4.7269020221        0.9097289540       -3.0554823951    0   0   0
S             3.1512612351        1.8193882564       -4.6232320683    0   0   0
S             4.7268719268        0.9096773839       -7.6014065489    0   0   0
S             4.7268723805        0.9096785128      -10.7330757790    0   0   0
S             3.1512592485        1.8193890201       -1.4877261251    0   0   0
Mo            3.1513082772        1.8196441413        3.0557085891
Mo            4.7259501722        0.9091487481        9.1562307678
S             3.1504122714        1.8212456771        7.5893806715
S             4.7272584287        0.9099012532        4.6229906422
S             4.7267641931        0.9096294072        1.4878209931
S             3.1565331265        1.8035990111       10.7322909491
[...]
S             7.8781303389        6.3679433204        1.4878271120
S             6.3188388492        7.2808641028       10.7322807365
Mo            4.7268792535       10.0065304219       -9.1672481230    0   0   0
Mo            6.3025111524        9.0968738021       -3.0554915260    0   0   0
S             4.7268840634       10.0065452125       -4.6232380477    0   0   0
S             6.3024994256        9.0968439439       -7.6014065489    0   0   0
S             6.3024998793        9.0968450728      -10.7330757790    0   0   0
S             4.7268847312       10.0065459141       -1.4877283294    0   0   0
Mo            4.7266684423       10.0064304989        3.0557018703
Mo            6.3040536855        9.0977438816        9.1589646921
S             4.7257563340       10.0048719113        7.5893730283
S             6.3025056132        9.0968322139        4.6228337915
S             6.3023202977        9.0967213348        1.4878216173
S             4.7379843974       10.0189902366       10.7322807733
Pd            1.5756990442        6.3678255483       12.1024753336
End final coordinates

     Writing all to output data dir ./outdir/pwscf.save/

     General routines

     Parallel routines

   This run was terminated on:   2:34:49  16Aug2023

   JOB DONE.
Application 11039970 resources: utime ~4532570s, stime ~47263s, Rss ~3489448, inblocks ~0, outblocks ~55320560