     Program PWSCF v.7.2 starts on 15Dec2023 at 14:30:22

     Waiting for input...
     Reading input from standard input

     Current dimensions of program PWSCF are:
     Max number of different atomic species (ntypx) = 10
     Max number of k-points (npk) =  40000
     Max angular momentum in pseudopotentials (lmaxx) =  4
     file Mo.pbe-spn-kjpaw_psl.1.0.0.UPF: wavefunction(s)  4S 4D renormalized
     file C.pbe-n-kjpaw_psl.1.0.0.UPF: wavefunction(s)  2S 2P renormalized

     K-points division:     npool     =       2
     R & G space division:  proc/nbgrp/npool/nimage =      24
     Subspace diagonalization in iterative solution of the eigenvalue problem:
     a serial algorithm will be used

     Using Slab Decomposition

     bravais-lattice index     =            0
     lattice parameter (alat)  =       5.7751  a.u.
     unit-cell volume          =     253.2027 (a.u.)^3
     number of atoms/cell      =            3
     number of atomic types    =            2
     number of electrons       =        32.00
     number of Kohn-Sham states=           20
     kinetic-energy cutoff     =      77.0000  Ry
     charge density cutoff     =     539.0000  Ry
     scf convergence threshold =      1.0E-06
     mixing beta               =       0.2000
     number of iterations used =            8  plain     mixing
     energy convergence thresh.=      1.0E-04
     force convergence thresh. =      1.0E-03
     press convergence thresh. =      5.0E-01
     Exchange-correlation= SLA  PW   PBX  PBC
                           (   1   4   3   4   0   0   0)
     nstep                     =         1000

     celldm(1)=   5.775097  celldm(2)=   0.000000  celldm(3)=   0.000000
     celldm(4)=   0.000000  celldm(5)=   0.000000  celldm(6)=   0.000000

     crystal axes: (cart. coord. in units of alat)
               a(1) = (   1.000000   0.000000   0.000000 )
               a(2) = (  -0.500000   0.866025   0.000000 )
               a(3) = (   0.000000   0.000000   1.517959 )

     reciprocal axes: (cart. coord. in units 2 pi/alat)
               b(1) = (  1.000000  0.577350  0.000000 )
               b(2) = (  0.000000  1.154701  0.000000 )
               b(3) = (  0.000000  0.000000  0.658780 )

     PseudoPot. # 1 for Mo read from file:
     ./pseudo/Mo.pbe-spn-kjpaw_psl.1.0.0.UPF
     MD5 check sum: 317bf72632116215fd98f72de1686f13
     Pseudo is Projector augmented-wave + core cor, Zval = 14.0
     Generated using 'atomic' code by A. Dal Corso  v.7.2
     Shape of augmentation charge: PSQ
     Using radial grid of 1229 points,  6 beta functions with:
                l(1) =   0
                l(2) =   0
                l(3) =   1
                l(4) =   1
                l(5) =   2
                l(6) =   2
     Q(r) pseudized with 0 coefficients

     PseudoPot. # 2 for C  read from file:
     ./pseudo/C.pbe-n-kjpaw_psl.1.0.0.UPF
     MD5 check sum: 6b0792899573946bb42fe395835041da
     Pseudo is Projector augmented-wave + core cor, Zval =  4.0
     Generated using 'atomic' code by A. Dal Corso  v.7.2
     Shape of augmentation charge: PSQ
     Using radial grid of 1073 points,  4 beta functions with:
                l(1) =   0
                l(2) =   0
                l(3) =   1
                l(4) =   1
     Q(r) pseudized with 0 coefficients

     atomic species   valence    mass     pseudopotential
        Mo            14.00    95.95000     Mo( 1.00)
        C              4.00    12.01100     C ( 1.00)

     No symmetry found

   Cartesian axes

     site n.     atom                  positions (alat units)
         1           Mo  tau(   1) = (  -0.0000000   0.5773503   0.3791381  )
         2           Mo  tau(   2) = (   0.5000000   0.2886751   1.1388204  )
         3           C   tau(   3) = (   0.0000000   0.0000000   0.7589793  )

     DFT-D3 Dispersion Correction (3-body terms):
       Reference C6 values for interpolation:

         atom   Coordination number   C6
         C          0.000            98.23
         C          0.987            86.49
         C          1.998            58.72
         C          2.999            51.56
         C          3.984            36.41
         Mo         0.000          1691.79
         Mo         1.942          1004.01
         Mo        11.056           674.22

       Values used:

         atom   Coordination number  R0_AB[au]  C6      C8
         Mo        13.409            3.547    674.22  77634.20
         Mo        13.409            3.547    674.22  77634.20
         C          6.049            2.750     36.41   1053.14

         Molecular C6 ( Ry / a.u.^6 ) =      3344.37

     number of k points=    36  Gaussian smearing, width (Ry)=  0.0100
                       cart. coord. in units 2pi/alat
        k(    1) = (   0.0000000   0.0000000   0.0000000), wk =   0.0312500
        k(    2) = (   0.0000000   0.0000000   0.1646949), wk =   0.0625000
        k(    3) = (   0.0000000   0.0000000  -0.3293898), wk =   0.0312500
        k(    4) = (   0.0000000   0.2886751   0.0000000), wk =   0.0625000
        k(    5) = (   0.0000000   0.2886751   0.1646949), wk =   0.0625000
        k(    6) = (   0.0000000   0.2886751  -0.3293898), wk =   0.0625000
        k(    7) = (   0.0000000   0.2886751  -0.1646949), wk =   0.0625000
        k(    8) = (   0.0000000  -0.5773503   0.0000000), wk =   0.0312500
        k(    9) = (   0.0000000  -0.5773503   0.1646949), wk =   0.0625000
        k(   10) = (   0.0000000  -0.5773503  -0.3293898), wk =   0.0312500
        k(   11) = (   0.2500000   0.1443376   0.0000000), wk =   0.0625000
        k(   12) = (   0.2500000   0.1443376   0.1646949), wk =   0.0625000
        k(   13) = (   0.2500000   0.1443376  -0.3293898), wk =   0.0625000
        k(   14) = (   0.2500000   0.1443376  -0.1646949), wk =   0.0625000
        k(   15) = (   0.2500000   0.4330127   0.0000000), wk =   0.0625000
        k(   16) = (   0.2500000   0.4330127   0.1646949), wk =   0.0625000
        k(   17) = (   0.2500000   0.4330127  -0.3293898), wk =   0.0625000
        k(   18) = (   0.2500000   0.4330127  -0.1646949), wk =   0.0625000
        k(   19) = (   0.2500000  -0.4330127   0.0000000), wk =   0.0625000
        k(   20) = (   0.2500000  -0.4330127   0.1646949), wk =   0.0625000
        k(   21) = (   0.2500000  -0.4330127  -0.3293898), wk =   0.0625000
        k(   22) = (   0.2500000  -0.4330127  -0.1646949), wk =   0.0625000
        k(   23) = (   0.2500000  -0.1443376   0.0000000), wk =   0.0625000
        k(   24) = (   0.2500000  -0.1443376   0.1646949), wk =   0.0625000
        k(   25) = (   0.2500000  -0.1443376  -0.3293898), wk =   0.0625000
        k(   26) = (   0.2500000  -0.1443376  -0.1646949), wk =   0.0625000
        k(   27) = (  -0.5000000  -0.2886751   0.0000000), wk =   0.0312500
        k(   28) = (  -0.5000000  -0.2886751   0.1646949), wk =   0.0625000
        k(   29) = (  -0.5000000  -0.2886751  -0.3293898), wk =   0.0312500
        k(   30) = (  -0.5000000   0.0000000   0.0000000), wk =   0.0625000
        k(   31) = (  -0.5000000   0.0000000   0.1646949), wk =   0.0625000
        k(   32) = (  -0.5000000   0.0000000  -0.3293898), wk =   0.0625000
        k(   33) = (  -0.5000000   0.0000000  -0.1646949), wk =   0.0625000
        k(   34) = (  -0.5000000  -0.8660254   0.0000000), wk =   0.0312500
        k(   35) = (  -0.5000000  -0.8660254   0.1646949), wk =   0.0625000
        k(   36) = (  -0.5000000  -0.8660254  -0.3293898), wk =   0.0312500

     Check: negative core charge=   -0.000001

     Initial potential from superposition of free atoms

     starting charge      31.9982, renormalised to      32.0000
     Starting wfcs are   24 randomized atomic wfcs
     Checking if some PAW data can be deallocated...

     Self-consistent Calculation

     iteration #  1     ecut=    77.00 Ry     beta= 0.20
     Davidson diagonalization with overlap
     ethr =  1.00E-02,  avg # of iterations =  2.0

     total energy              =    -746.32987247 Ry
     estimated scf accuracy    <       0.57520227 Ry

[...]

     End of self-consistent calculation

          k = 0.0000 0.0000 0.0000 (  2881 PWs)   bands (ev):

   -41.5033 -41.3385 -16.0725 -15.3491 -15.3491 -15.2012 -15.2012 -15.0591
     6.9917  12.8399  15.0513  15.0513  17.5562  18.8038  18.8451  18.8451
    19.0232  19.0232  20.6279  20.6279

[...]

          k =-0.5000-0.2887 0.0000 (  2898 PWs)   bands (ev):

[...]

     the Fermi energy is    20.0821 ev

!    total energy              =    -746.38673056 Ry
     total all-electron energy =    -16272.406770 Ry
     estimated scf accuracy    <       0.00000032 Ry
     smearing contrib. (-TS)   =      -0.00233368 Ry
     internal energy E=F+TS    =    -746.38439688 Ry

     The total energy is F=E-TS. E is the sum of the following terms:
     one-electron contribution =     -34.23956814 Ry
     hartree contribution      =      39.89229946 Ry
     xc contribution           =     -43.60226288 Ry
     ewald contribution        =    -247.41169672 Ry
     DFT-D3 Dispersion         =      -0.10589105 Ry
     one-center paw contrib.   =    -460.91727755 Ry

     convergence has been achieved in  10 iterations

     Forces acting on atoms (cartesian axes, Ry/au):

     atom    1 type  1   force =    -0.00000111   -0.00000512    0.01987593
     atom    2 type  1   force =    -0.00000316    0.00000888   -0.01989593
     atom    3 type  2   force =     0.00000427   -0.00000376    0.00001999
     The non-local contrib.  to forces
     atom    1 type  1   force =     0.00000693   -0.00000686   -0.08722156
     atom    2 type  1   force =     0.00000959   -0.00001174    0.08724134
     atom    3 type  2   force =    -0.00000123   -0.00000342    0.00001379
     The ionic contribution  to forces
     atom    1 type  1   force =     0.00000013   -0.00000008   -8.35560697
     atom    2 type  1   force =    -0.00000013    0.00000008    8.35560697
     atom    3 type  2   force =    -0.00000000    0.00000000    0.00000000
     The local contribution  to forces
     atom    1 type  1   force =    -0.00000632   -0.00001234    8.46131952
     atom    2 type  1   force =    -0.00000235    0.00000969   -8.46132380
     atom    3 type  2   force =    -0.00000425    0.00001017    0.00011421
     The core correction contribution to forces
     atom    1 type  1   force =    -0.00000042    0.00000023    0.00322026
     atom    2 type  1   force =    -0.00000059    0.00000078   -0.00322077
     atom    3 type  2   force =    -0.00000006    0.00000012   -0.00000030
     The Hubbard contrib.    to forces
     atom    1 type  1   force =     0.00000000    0.00000000    0.00000000
     atom    2 type  1   force =     0.00000000    0.00000000    0.00000000
     atom    3 type  2   force =     0.00000000    0.00000000    0.00000000
     The SCF correction term to forces
     atom    1 type  1   force =    -0.00000819    0.00002079   -0.00127391
     atom    2 type  1   force =    -0.00001643    0.00001692    0.00124266
     atom    3 type  2   force =     0.00000304   -0.00000378   -0.00010583

     DFT-D3 dispersion contribution to forces:
     atom    1 type  1   force =    -0.00000000    0.00000000   -0.00055954
     atom    2 type  1   force =     0.00000000   -0.00000000    0.00055954
     atom    3 type  2   force =    -0.00000000   -0.00000000    0.00000000

     Total force =     0.028123     Total SCF correction =     0.001783

     Computing stress (Cartesian axis) and pressure

          total   stress  (Ry/bohr**3)                   (kbar)     P=      -29.64
  -0.00004344   0.00000003   0.00000005           -6.39        0.00        0.01
   0.00000003  -0.00004345   0.00000002            0.00       -6.39        0.00
   0.00000005   0.00000002  -0.00051751            0.01        0.00      -76.13

     BFGS Geometry Optimization
     Energy error            =      0.0E+00 Ry
     Gradient error          =      2.0E-02 Ry/Bohr
     Cell gradient error     =      7.6E+01 kbar

     number of scf cycles    =   1
     number of bfgs steps    =   0

     enthalpy           new  =    -746.3867305555 Ry

     new trust radius        =       0.0411736803 bohr
     new conv_thr            =       0.0000010000 Ry

     new unit-cell volume =    249.38433 a.u.^3 (    36.95494 Ang^3 )
     density =      9.16257 g/cm^3

CELL_PARAMETERS (angstrom)
   3.052731105   0.000002092   0.000003527
  -1.526363741   2.643741049  -0.000000635
   0.000005353   0.000001977   4.578939636

ATOMIC_POSITIONS (angstrom)
Mo            0.0000019557        1.7624925308        1.1540571304
Mo            1.5263685060        0.8812545724        3.4248749547
C             0.0000049318       -0.0000009968        2.2894802611

     Writing config-only to output data dir ./outdir/pwscf.save/
     NEW-OLD atomic charge density approx. for the potential

     Check: negative core charge=   -0.000001
     extrapolated charge   31.51006, renormalised to   32.00000

[...]

     Total force =     0.006583     Total SCF correction =     0.006025
     SCF correction compared to forces is large: reduce conv_thr to get better values

[...]

     Energy error            =      1.2E-03 Ry
     Gradient error          =      4.7E-03 Ry/Bohr
     Cell gradient error     =      4.1E+01 kbar

[...]

     enthalpy           old  =    -746.3867305555 Ry
     enthalpy           new  =    -746.3879650525 Ry

     CASE: enthalpy          _new < enthalpy          _old

[...]

     Threshold (ethr) on eigenvalues was too large:
     Diagonalizing with lowered threshold

     Davidson diagonalization with overlap
     ethr =  1.61E-08,  avg # of iterations =  2.1

[...]

     number of scf cycles    =   5
     number of bfgs steps    =   4

     enthalpy           old  =    -746.3884570684 Ry
     enthalpy           new  =    -746.3884581234 Ry

     CASE: enthalpy          _new < enthalpy          _old

     new trust radius        =       0.0003216317 bohr
     new conv_thr            =       0.0000000100 Ry

     new unit-cell volume =    252.06642 a.u.^3 (    37.35239 Ang^3 )
     density =      9.06507 g/cm^3

[...]

ATOMIC_POSITIONS (angstrom)
Mo            0.0000015209        1.7744626593        1.1577853784
Mo            1.5367316521        0.8872331792        3.4081623925
C             0.0000004649       -0.0000016935        2.2829756385

     Writing config-only to output data dir ./outdir/pwscf.save/
     NEW-OLD atomic charge density approx. for the potential

     Check: negative core charge=   -0.000001
     extrapolated charge   31.99878, renormalised to   32.00000

[...]

     Threshold (ethr) on eigenvalues was too large:
     Diagonalizing with lowered threshold

     Davidson diagonalization with overlap
     ethr =  7.26E-10,  avg # of iterations =  3.0

[...]

     Energy error            =      2.6E-07 Ry
     Gradient error          =      5.0E-05 Ry/Bohr
     Cell gradient error     =      2.5E-01 kbar

     bfgs converged in   6 scf cycles and   5 bfgs steps
     (criteria: energy <  1.0E-04 Ry, force <  1.0E-03 Ry/Bohr, cell <  5.0E-01 kbar)

     End of BFGS Geometry Optimization

     Final enthalpy           =    -746.3884583802 Ry

     File ./outdir/pwscf.bfgs deleted, as requested
Begin final coordinates
     new unit-cell volume =    252.06642 a.u.^3 (    37.35239 Ang^3 )
     density =      9.06507 g/cm^3

CELL_PARAMETERS (angstrom)
   3.073465108  -0.000000074   0.000000599
  -1.536732618   2.661699127  -0.000002104
   0.000000766  -0.000003272   4.565949944

ATOMIC_POSITIONS (angstrom)
Mo            0.0000015209        1.7744626593        1.1577853784
Mo            1.5367316521        0.8872331792        3.4081623925
C             0.0000004649       -0.0000016935        2.2829756385
End final coordinates

     Writing config-only to output data dir ./outdir/pwscf.save/

     Final scf calculation at the relaxed structure.
     The G-vectors are recalculated for the final unit cell
     Results may differ from those at the preceding step.

     Using Slab Decomposition

     bravais-lattice index     =            0
     lattice parameter (alat)  =       5.7751  a.u.
     unit-cell volume          =     252.0664 (a.u.)^3
     number of atoms/cell      =            3
     number of atomic types    =            2
     number of electrons       =        32.00
     number of Kohn-Sham states=           20
     kinetic-energy cutoff     =      77.0000  Ry
     charge density cutoff     =     539.0000  Ry
     scf convergence threshold =      1.0E-08
     mixing beta               =       0.2000
     number of iterations used =            8  plain     mixing
     press convergence thresh. =      5.0E-01
     Exchange-correlation= SLA  PW   PBX  PBC
                           (   1   4   3   4   0   0   0)

     celldm(1)=   5.775097  celldm(2)=   0.000000  celldm(3)=   0.000000
     celldm(4)=   0.000000  celldm(5)=   0.000000  celldm(6)=   0.000000

     crystal axes: (cart. coord. in units of alat)
               a(1) = (   1.005699  -0.000000   0.000000 )
               a(2) = (  -0.502849   0.870961  -0.000001 )
               a(3) = (   0.000000  -0.000001   1.494069 )

     reciprocal axes: (cart. coord. in units 2 pi/alat)
               b(1) = (  0.994334  0.574079  0.000000 )
               b(2) = (  0.000000  1.148157  0.000001 )
               b(3) = ( -0.000000  0.000000  0.669313 )

     PseudoPot. # 1 for Mo read from file:
     ./pseudo/Mo.pbe-spn-kjpaw_psl.1.0.0.UPF
     MD5 check sum: 317bf72632116215fd98f72de1686f13
     Pseudo is Projector augmented-wave + core cor, Zval = 14.0
     Generated using 'atomic' code by A. Dal Corso  v.7.2
     Shape of augmentation charge: PSQ
     Using radial grid of 1229 points,  6 beta functions with:
                l(1) =   0
                l(2) =   0
                l(3) =   1
                l(4) =   1
                l(5) =   2
                l(6) =   2
     Q(r) pseudized with 0 coefficients

     PseudoPot. # 2 for C  read from file:
     ./pseudo/C.pbe-n-kjpaw_psl.1.0.0.UPF
     MD5 check sum: 6b0792899573946bb42fe395835041da
     Pseudo is Projector augmented-wave + core cor, Zval =  4.0
     Generated using 'atomic' code by A. Dal Corso  v.7.2
     Shape of augmentation charge: PSQ
     Using radial grid of 1073 points,  4 beta functions with:
                l(1) =   0
                l(2) =   0
                l(3) =   1
                l(4) =   1
     Q(r) pseudized with 0 coefficients

     atomic species   valence    mass     pseudopotential
        Mo            14.00    95.95000     Mo( 1.00)
        C              4.00    12.01100     C ( 1.00)

     No symmetry found

   Cartesian axes

     site n.     atom                  positions (alat units)
         1           Mo  tau(   1) = (   0.0000005   0.5806393   0.3788503  )
         2           Mo  tau(   2) = (   0.5028490   0.2903203   1.1152182  )
         3           C   tau(   3) = (   0.0000002  -0.0000006   0.7470349  )

     DFT-D3 Dispersion Correction (3-body terms):
       Reference C6 values for interpolation:

         atom   Coordination number   C6
         C          0.000            98.23
         C          0.987            86.49
         C          1.998            58.72
         C          2.999            51.56
         C          3.984            36.41
         Mo         0.000          1691.79
         Mo         1.942          1004.01
         Mo        11.056           674.22

       Values used:

         atom   Coordination number  R0_AB[au]  C6      C8
         Mo        13.390            3.547    674.22  77634.20
         Mo        13.390            3.547    674.22  77634.20
         C          6.058            2.750     36.41   1053.14

         Molecular C6 ( Ry / a.u.^6 ) =      3344.37

     number of k points=    36  Gaussian smearing, width (Ry)=  0.0100
                       cart. coord. in units 2pi/alat
        k(    1) = (   0.0000000   0.0000000   0.0000000), wk =   0.0312500
        k(    2) = (  -0.0000000   0.0000001   0.1673283), wk =   0.0625000
        k(    3) = (   0.0000001  -0.0000002  -0.3346565), wk =   0.0312500
        k(    4) = (   0.0000000   0.2870394   0.0000002), wk =   0.0625000
        k(    5) = (  -0.0000000   0.2870395   0.1673285), wk =   0.0625000
        k(    6) = (   0.0000001   0.2870391  -0.3346563), wk =   0.0625000
        k(    7) = (   0.0000000   0.2870393  -0.1673280), wk =   0.0625000
        k(    8) = (  -0.0000000  -0.5740787  -0.0000004), wk =   0.0312500
        k(    9) = (  -0.0000000  -0.5740786   0.1673278), wk =   0.0625000
        k(   10) = (   0.0000001  -0.5740790  -0.3346569), wk =   0.0312500
        k(   11) = (   0.2485834   0.1435197   0.0000001), wk =   0.0625000
        k(   12) = (   0.2485834   0.1435198   0.1673283), wk =   0.0625000
        k(   13) = (   0.2485835   0.1435195  -0.3346564), wk =   0.0625000
        k(   14) = (   0.2485834   0.1435196  -0.1673282), wk =   0.0625000
        k(   15) = (   0.2485834   0.4305591   0.0000003), wk =   0.0625000
        k(   16) = (   0.2485834   0.4305592   0.1673285), wk =   0.0625000
        k(   17) = (   0.2485835   0.4305588  -0.3346562), wk =   0.0625000
        k(   18) = (   0.2485834   0.4305589  -0.1673280), wk =   0.0625000
        k(   19) = (   0.2485834  -0.4305590  -0.0000004), wk =   0.0625000
        k(   20) = (   0.2485834  -0.4305589   0.1673279), wk =   0.0625000
        k(   21) = (   0.2485835  -0.4305593  -0.3346569), wk =   0.0625000
        k(   22) = (   0.2485834  -0.4305592  -0.1673286), wk =   0.0625000
        k(   23) = (   0.2485834  -0.1435197  -0.0000001), wk =   0.0625000
        k(   24) = (   0.2485834  -0.1435196   0.1673281), wk =   0.0625000
        k(   25) = (   0.2485835  -0.1435199  -0.3346566), wk =   0.0625000
        k(   26) = (   0.2485834  -0.1435198  -0.1673284), wk =   0.0625000
        k(   27) = (  -0.4971668  -0.2870394  -0.0000001), wk =   0.0312500
        k(   28) = (  -0.4971669  -0.2870393   0.1673281), wk =   0.0625000
        k(   29) = (  -0.4971668  -0.2870396  -0.3346566), wk =   0.0312500
        k(   30) = (  -0.4971668  -0.0000000   0.0000001), wk =   0.0625000
        k(   31) = (  -0.4971668   0.0000001   0.1673283), wk =   0.0625000
        k(   32) = (  -0.4971667  -0.0000002  -0.3346564), wk =   0.0625000
        k(   33) = (  -0.4971668  -0.0000001  -0.1673282), wk =   0.0625000
        k(   34) = (  -0.4971668  -0.8611181  -0.0000005), wk =   0.0312500
        k(   35) = (  -0.4971669  -0.8611180   0.1673277), wk =   0.0625000
        k(   36) = (  -0.4971668  -0.8611183  -0.3346570), wk =   0.0312500

     Check: negative core charge=   -0.000002

     Initial potential from superposition of free atoms

     starting charge      31.9982, renormalised to      32.0000
     Starting wfcs are   24 randomized atomic wfcs
     Checking if some PAW data can be deallocated...

     Self-consistent Calculation

     iteration #  1     ecut=    77.00 Ry     beta= 0.20
     Davidson diagonalization with overlap
     c_bands:  1 eigenvalues not converged
     ethr =  1.00E-06,  avg # of iterations = 13.2

[...]

     total energy              =    -746.38845109 Ry
     estimated scf accuracy    <       0.00000001 Ry

     iteration # 15     ecut=    77.00 Ry     beta= 0.20
     Davidson diagonalization with overlap
     ethr =  3.23E-11,  avg # of iterations =  2.2

     End of self-consistent calculation

[...]

          k = 0.2486-0.1435-0.1673 (  2872 PWs)   bands (ev):

[...]

          k =-0.4972-0.8611-0.3347 (  2872 PWs)   bands (ev):

   -41.2722 -41.2610 -15.9428 -15.8977 -15.3655 -15.2860 -15.2107 -15.1726
     8.0278  13.0201  14.8221  15.2223  16.5290  18.2781  18.7071  19.8003
    21.1675  21.5053  22.1567  22.5828

     the Fermi energy is    20.1557 ev

!    total energy              =    -746.38845130 Ry
     total all-electron energy =    -16272.408491 Ry
     estimated scf accuracy    <          3.2E-10 Ry
     smearing contrib. (-TS)   =      -0.00212905 Ry
     internal energy E=F+TS    =    -746.38632225 Ry

     The total energy is F=E-TS. E is the sum of the following terms:
     one-electron contribution =     -34.73748770 Ry
     hartree contribution      =      40.25179533 Ry
     xc contribution           =     -43.63495879 Ry
     ewald contribution        =    -247.24023910 Ry
     DFT-D3 Dispersion         =      -0.10631674 Ry
     one-center paw contrib.   =    -460.91911525 Ry

     convergence has been achieved in  15 iterations

     Forces acting on atoms (cartesian axes, Ry/au):

     atom    1 type  1   force =    -0.00000025    0.00000050    0.00011550
     atom    2 type  1   force =     0.00000021   -0.00000057   -0.00011480
     atom    3 type  2   force =     0.00000004    0.00000007   -0.00000069
     The non-local contrib.  to forces
     atom    1 type  1   force =     0.00000035   -0.00000032   -0.07401931
     atom    2 type  1   force =    -0.00000059    0.00000031    0.07401872
     atom    3 type  2   force =    -0.00000002    0.00000010   -0.00000042
     The ionic contribution  to forces
     atom    1 type  1   force =    -0.00000905    0.00001060   -9.21950776
     atom    2 type  1   force =     0.00001006   -0.00001131    9.21951246
     atom    3 type  2   force =    -0.00000101    0.00000071   -0.00000470
     The local contribution  to forces
     atom    1 type  1   force =     0.00000861   -0.00001003    9.29182086
     atom    2 type  1   force =    -0.00000858    0.00001075   -9.29182428
     atom    3 type  2   force =     0.00000078   -0.00000072    0.00000343
     The core correction contribution to forces
     atom    1 type  1   force =    -0.00000002    0.00000003    0.00245225
     atom    2 type  1   force =     0.00000004   -0.00000003   -0.00245222
     atom    3 type  2   force =    -0.00000000   -0.00000000    0.00000001
     The Hubbard contrib.    to forces
     atom    1 type  1   force =     0.00000000    0.00000000    0.00000000
     atom    2 type  1   force =     0.00000000    0.00000000    0.00000000
     atom    3 type  2   force =     0.00000000    0.00000000    0.00000000
     The SCF correction term to forces
     atom    1 type  1   force =    -0.00000030    0.00000022   -0.00004466
     atom    2 type  1   force =    -0.00000088   -0.00000030    0.00004466
     atom    3 type  2   force =     0.00000014   -0.00000002    0.00000100

     DFT-D3 dispersion contribution to forces:
     atom    1 type  1   force =     0.00000000   -0.00000000   -0.00058586
     atom    2 type  1   force =    -0.00000000    0.00000000    0.00058586
     atom    3 type  2   force =     0.00000000   -0.00000000   -0.00000000

     Total force =     0.000163     Total SCF correction =     0.000063
     SCF correction compared to forces is large: reduce conv_thr to get better values

     Computing stress (Cartesian axis) and pressure

          total   stress  (Ry/bohr**3)                   (kbar)     P=       -0.11
  -0.00000113  -0.00000000   0.00000000           -0.17       -0.00        0.00
  -0.00000000  -0.00000112   0.00000000           -0.00       -0.17        0.00
   0.00000000   0.00000000   0.00000008            0.00        0.00        0.01

     Writing all to output data dir ./outdir/pwscf.save/

     General routines

     Parallel routines

   This run was terminated on:  14:30:45  15Dec2023

   JOB DONE.