     Program PWSCF v.7.2 starts on 11Oct2023 at 10: 2:56

     Waiting for input...
     Reading input from standard input
Warning: card &CELL ignored
Warning: card / ignored

     Current dimensions of program PWSCF are:
     Max number of different atomic species (ntypx) = 10
     Max number of k-points (npk) =  40000
     Max angular momentum in pseudopotentials (lmaxx) =  4
     file Mo.pbe-spn-kjpaw_psl.1.0.0.UPF: wavefunction(s)  4S 4D renormalized
     file S.pbe-n-kjpaw_psl.1.0.0.UPF: wavefunction(s)  3S 3P renormalized
     file Pd.pbe-spn-kjpaw_psl.1.0.0.UPF: wavefunction(s)  4S 5S 4D renormalized

     R & G space division:  proc/nbgrp/npool/nimage =      36
     Subspace diagonalization in iterative solution of the eigenvalue problem:
     one sub-group per band group will be used

     Using Slab Decomposition

     bravais-lattice index     =            0
     lattice parameter (alat)  =      23.8199  a.u.
     unit-cell volume          =   33861.0370 (a.u.)^3
     number of atoms/cell      =          194
     number of atomic types    =            3
     number of electrons       =      1700.00
     number of Kohn-Sham states=         1020
     kinetic-energy cutoff     =      77.0000  Ry
     charge density cutoff     =     539.0000  Ry
     scf convergence threshold =      1.0E-06
     mixing beta               =       0.2000
     number of iterations used =            8  plain     mixing
     energy convergence thresh.=      1.0E-04
     force convergence thresh. =      1.0E-03
     Exchange-correlation= SLA  PW   PBX  PBC
                           (   1   4   3   4   0   0   0)
     nstep                     =         1000

     Effective Screening Medium Method
     Boundary Conditions: Vacuum-Slab-Vacuum
     total charge in unit cell        =   0.0000
     grid points for fit at edges     =        4

     celldm(1)=  23.819920  celldm(2)=   0.000000  celldm(3)=   0.000000
     celldm(4)=   0.000000  celldm(5)=   0.000000  celldm(6)=   0.000000

     crystal axes: (cart. coord. in units of alat)
               a(1) = (   1.000000   0.000000   0.000000 )
               a(2) = (  -0.499999   0.866026   0.000000 )
               a(3) = (   0.000000   0.000000   2.893000 )

     reciprocal axes: (cart. coord. in units 2 pi/alat)
               b(1) = (  1.000000  0.577349  0.000000 )
               b(2) = (  0.000000  1.154700  0.000000 )
               b(3) = (  0.000000  0.000000  0.345662 )

     PseudoPot. # 1 for Mo read from file:
     ./pseudo/Mo.pbe-spn-kjpaw_psl.1.0.0.UPF
     MD5 check sum: 317bf72632116215fd98f72de1686f13
     Pseudo is Projector augmented-wave + core cor, Zval = 14.0
     Generated using 'atomic' code by A. Dal Corso  v.7.2
     Shape of augmentation charge: PSQ
     Using radial grid of 1229 points,  6 beta functions with:
                l(1) =   0
                l(2) =   0
                l(3) =   1
                l(4) =   1
                l(5) =   2
                l(6) =   2
     Q(r) pseudized with 0 coefficients

     PseudoPot. # 2 for S  read from file:
     ./pseudo/S.pbe-n-kjpaw_psl.1.0.0.UPF
     MD5 check sum: 8b7b5302570d38d5e87fed6a1065abda
     Pseudo is Projector augmented-wave + core cor, Zval =  6.0
     Generated using 'atomic' code by A. Dal Corso  v.7.2
     Shape of augmentation charge: PSQ
     Using radial grid of 1151 points,  6 beta functions with:
                l(1) =   0
                l(2) =   0
                l(3) =   1
                l(4) =   1
                l(5) =   2
                l(6) =   2
     Q(r) pseudized with 0 coefficients

     PseudoPot. # 3 for Pd read from file:
     ./pseudo/Pd.pbe-spn-kjpaw_psl.1.0.0.UPF
     MD5 check sum: a60571a671f2502b8a6a4569d20a6edb
     Pseudo is Projector augmented-wave + core cor, Zval = 18.0
     Generated using 'atomic' code by A. Dal Corso  v.7.2
     Shape of augmentation charge: PSQ
     Using radial grid of 1235 points,  6 beta functions with:
                l(1) =   0
                l(2) =   0
                l(3) =   1
                l(4) =   1
                l(5) =   2
                l(6) =   2
     Q(r) pseudized with 0 coefficients

     atomic species   valence    mass     pseudopotential
        Mo            14.00    95.95000     Mo( 1.00)
        S              6.00    32.06000     S ( 1.00)
        Pd            18.00   106.42000     Pd( 1.00)

     No symmetry found

   Cartesian axes

     site n.     atom                  positions (alat units)
         1           Mo  tau(   1) = (   0.0000010   0.1443372  -0.7272732  )
         2           Mo  tau(   2) = (   0.1249995   0.0721706  -0.2424038  )
         3           S   tau(   3) = (   0.0000015   0.1443386  -0.3667807  )
         4           S   tau(   4) = (   0.1250010   0.0721682  -0.6030489  )
         5           S   tau(   5) = (   0.1250010   0.0721683  -0.8514963  )
         6           S   tau(   6) = (   0.0000015   0.1443389  -0.1180260  )
         7           Mo  tau(   7) = (   0.0000007   0.1443589   0.2424205  )
         8           Mo  tau(   8) = (   0.1250041   0.0720322   0.7266168  )
         9           S   tau(   9) = (   0.0000742   0.1444871   0.6020949  )
        10           S   tau(  10) = (   0.1250024   0.0721701   0.3667478  )
        11           S   tau(  11) = (   0.1250035   0.0721876   0.1180348  )
        12           S   tau(  12) = (  -0.0004118   0.1430864   0.8514340  )
        13           Mo  tau(  13) = (  -0.1249989   0.3608437  -0.7272732  )
        14           Mo  tau(  14) = (   0.0000030   0.2886752  -0.2424042  )
        15           S   tau(  15) = (  -0.1249977   0.3608450  -0.3667802  )
        16           S   tau(  16) = (   0.0000012   0.2886747  -0.6030489  )
        17           S   tau(  17) = (   0.0000012   0.2886748  -0.8514963  )
        18           S   tau(  18) = (  -0.1249977   0.3608454  -0.1180274  )
        19           Mo  tau(  19) = (  -0.1249729   0.3608584   0.2424608  )
        20           Mo  tau(  20) = (  -0.0007193   0.2876626   0.7275440  )
        21           S   tau(  21) = (  -0.1251115   0.3607789   0.6027257  )
        22           S   tau(  22) = (   0.0000621   0.2887099   0.3668377  )
        23           S   tau(  23) = (  -0.0000096   0.2886902   0.1180527  )
        24           S   tau(  24) = (  -0.1254673   0.3605734   0.8517408  )
        25           Mo  tau(  25) = (  -0.2499987   0.5773502  -0.7272732  )
        26           Mo  tau(  26) = (  -0.1249977   0.5051839  -0.2424055  )
        27           S   tau(  27) = (  -0.2499981   0.5773518  -0.3667809  )
        28           S   tau(  28) = (  -0.1249986   0.5051812  -0.6030489  )
        29           S   tau(  29) = (  -0.1249986   0.5051813  -0.8514963  )
        30           S   tau(  30) = (  -0.2499979   0.5773512  -0.1180266  )
        31           Mo  tau(  31) = (  -0.2499795   0.5773389   0.2424205  )
        32           Mo  tau(  32) = (  -0.1262356   0.5050639   0.7275441  )
        33           S   tau(  33) = (  -0.2498323   0.5773390   0.6020948  )
        34           S   tau(  34) = (  -0.1249376   0.5052159   0.3668377  )
        35           S   tau(  35) = (  -0.1249905   0.5051638   0.1180531  )
        36           S   tau(  36) = (  -0.2512883   0.5776183   0.8514340  )
        37           Mo  tau(  37) = (  -0.3749985   0.7938567  -0.7272732  )
        38           Mo  tau(  38) = (  -0.2500001   0.7216874  -0.2424031  )
        39           S   tau(  39) = (  -0.3749980   0.7938584  -0.3667800  )
        40           S   tau(  40) = (  -0.2499984   0.7216877  -0.6030489  )
        41           S   tau(  41) = (  -0.2499984   0.7216878  -0.8514963  )
        42           S   tau(  42) = (  -0.3749982   0.7938585  -0.1180264  )
        43           Mo  tau(  43) = (  -0.3749962   0.7938568   0.2423838  )
        44           Mo  tau(  44) = (  -0.2501148   0.7217588   0.7266170  )
        45           S   tau(  45) = (  -0.3749945   0.7938590   0.6021274  )
        46           S   tau(  46) = (  -0.2499958   0.7216877   0.3667488  )
        47           S   tau(  47) = (  -0.2499810   0.7216794   0.1180323  )
        48           S   tau(  48) = (  -0.3749953   0.7938585   0.8511588  )
        49           Mo  tau(  49) = (   0.2500010   0.1443372  -0.7272732  )
        50           Mo  tau(  50) = (   0.3750034   0.0721723  -0.2424032  )
        51           S   tau(  51) = (   0.2500017   0.1443391  -0.3667788  )
        52           S   tau(  52) = (   0.3750010   0.0721682  -0.6030489  )
        53           S   tau(  53) = (   0.3750010   0.0721683  -0.8514963  )
        54           S   tau(  54) = (   0.2500016   0.1443391  -0.1180271  )
        55           Mo  tau(  55) = (   0.2500054   0.1443594   0.2424211  )
        56           Mo  tau(  56) = (   0.3749279   0.0721263   0.7263991  )
        57           S   tau(  57) = (   0.2499344   0.1444864   0.6020948  )
        58           S   tau(  58) = (   0.3750316   0.0721860   0.3667597  )
        59           S   tau(  59) = (   0.3749924   0.0721644   0.1180346  )
        60           S   tau(  60) = (   0.2504199   0.1430865   0.8514340  )
[...]
       180           S   tau( 180) = (   0.5012979   0.5776190   0.8514332  )
       181           Mo  tau( 181) = (   0.3750016   0.7938567  -0.7272732  )
       182           Mo  tau( 182) = (   0.5000025   0.7216901  -0.2424039  )
       183           S   tau( 183) = (   0.3750019   0.7938578  -0.3667793  )
       184           S   tau( 184) = (   0.5000016   0.7216877  -0.6030489  )
       185           S   tau( 185) = (   0.5000016   0.7216878  -0.8514963  )
       186           S   tau( 186) = (   0.3750020   0.7938579  -0.1180272  )
       187           Mo  tau( 187) = (   0.3749848   0.7938487   0.2424206  )
       188           Mo  tau( 188) = (   0.5001249   0.7217591   0.7266160  )
       189           S   tau( 189) = (   0.3749125   0.7937251   0.6020942  )
       190           S   tau( 190) = (   0.5000021   0.7216868   0.3667472  )
       191           S   tau( 191) = (   0.4999874   0.7216780   0.1180346  )
       192           S   tau( 192) = (   0.3758826   0.7948451   0.8514332  )
       193           Pd  tau( 193) = (   0.1250063   0.5051842   0.9601361  )
       194           Pd  tau( 194) = (   0.3754871   0.3605724   1.0262628  )

     DFT-D3 Dispersion Correction (3-body terms):
       Reference C6 values for interpolation:

         atom   Coordination number   C6
         S          0.000           268.01
         S          0.995           261.99
         S          1.990           251.62
         Mo         0.000          1691.79
         Mo         1.942          1004.01
         Mo        11.056           674.22
         Pd         0.000          1217.01
         Pd         1.863           573.90
         Pd         5.710           531.75

       Values used:

         atom   Coordination number  R0_AB[au]  C6      C8
         Mo        10.208            3.547    674.22  77634.20
         Mo        10.221            3.547    674.22  77634.20
         S          3.858            3.128    251.62  12327.25
         S          3.859            3.128    251.62  12327.25
[...]
     atom   15 type  2   force =     0.00000000    0.00000000    0.00000000
     atom   16 type  2   force =     0.00000000    0.00000000    0.00000000
     atom   17 type  2   force =     0.00000000    0.00000000    0.00000000
     atom   18 type  2   force =     0.00000000    0.00000000    0.00000000
     atom   19 type  1   force =     0.00000322   -0.00000025   -0.00005706
     atom   20 type  1   force =    -0.00001337    0.00001487   -0.00000945
     atom   21 type  2   force =    -0.00000677    0.00000259    0.00000312
     atom   22 type  2   force =     0.00000443    0.00000024   -0.00001345
     atom   23 type  2   force =     0.00000578    0.00000203   -0.00002222
     atom   24 type  2   force =    -0.00001107    0.00000590   -0.00000286
     atom   25 type  1   force =     0.00000000    0.00000000    0.00000000
     atom   26 type  1   force =     0.00000000    0.00000000    0.00000000
     atom   27 type  2   force =     0.00000000    0.00000000    0.00000000
     atom   28 type  2   force =     0.00000000    0.00000000    0.00000000
     atom   29 type  2   force =     0.00000000    0.00000000    0.00000000
     atom   30 type  2   force =     0.00000000    0.00000000    0.00000000
     atom   31 type  1   force =    -0.00001545   -0.00000206   -0.00005754
     atom   32 type  1   force =    -0.00000178    0.00001127    0.00001088
     atom   33 type  2   force =    -0.00000804    0.00000322    0.00000212
     atom   34 type  2   force =    -0.00000703    0.00000567   -0.00001094
     atom   35 type  2   force =    -0.00000575    0.00000354   -0.00002020
     atom   36 type  2   force =    -0.00000168    0.00000366   -0.00001037
     atom   37 type  1   force =     0.00000000    0.00000000    0.00000000
     atom   38 type  1   force =     0.00000000    0.00000000    0.00000000
     atom   39 type  2   force =     0.00000000    0.00000000    0.00000000
     atom   40 type  2   force =     0.00000000    0.00000000    0.00000000
     atom   41 type  2   force =     0.00000000    0.00000000    0.00000000
     atom   42 type  2   force =     0.00000000    0.00000000    0.00000000
     atom   43 type  1   force =     0.00002751   -0.00001752   -0.00005635
     atom   44 type  1   force =    -0.00003997    0.00002431   -0.00000540
     atom   45 type  2   force =     0.00001009   -0.00000657    0.00001147
     atom   46 type  2   force =    -0.00000506    0.00000303   -0.00001250
     atom   47 type  2   force =    -0.00000483    0.00000273   -0.00001350
     atom   48 type  2   force =     0.00001015   -0.00000675   -0.00001000
     atom   49 type  1   force =     0.00000000    0.00000000    0.00000000
     atom   50 type  1   force =     0.00000000    0.00000000    0.00000000
     atom   51 type  2   force =     0.00000000    0.00000000    0.00000000
     atom   52 type  2   force =     0.00000000    0.00000000    0.00000000
     atom   53 type  2   force =     0.00000000    0.00000000    0.00000000
     atom   54 type  2   force =     0.00000000    0.00000000    0.00000000
     atom   55 type  1   force =     0.00003021   -0.00000513   -0.00006767
     atom   56 type  1   force =    -0.00001378   -0.00001351   -0.00002689
     atom   57 type  2   force =     0.00000823   -0.00000715    0.00000327
     atom   58 type  2   force =    -0.00000253   -0.00000021   -0.00001728
     atom   59 type  2   force =    -0.00000375    0.00000820   -0.00001132
     atom   60 type  2   force =     0.00000804   -0.00001493   -0.00000043
[...]
     atom  180 type  2   force =     0.00001493    0.00000141   -0.00000115
     atom  181 type  1   force =     0.00000000    0.00000000    0.00000000
     atom  182 type  1   force =     0.00000000    0.00000000    0.00000000
     atom  183 type  2   force =     0.00000000    0.00000000    0.00000000
     atom  184 type  2   force =     0.00000000    0.00000000    0.00000000
     atom  185 type  2   force =     0.00000000    0.00000000    0.00000000
     atom  186 type  2   force =     0.00000000    0.00000000    0.00000000
     atom  187 type  1   force =     0.00001620   -0.00002160   -0.00006198
     atom  188 type  1   force =     0.00005038   -0.00001229   -0.00001972
     atom  189 type  2   force =     0.00001270   -0.00000503   -0.00000412
     atom  190 type  2   force =     0.00000725   -0.00000600   -0.00001467
     atom  191 type  2   force =     0.00000285   -0.00000719   -0.00001646
     atom  192 type  2   force =     0.00001233   -0.00000499    0.00000681
     atom  193 type  3   force =    -0.00003463    0.00002354    0.00001888
     atom  194 type  3   force =     0.00004806   -0.00002419    0.00003392

     DFT-D3 dispersion contribution to forces:
     atom    1 type  1   force =     0.00000000    0.00000003    0.00255965
     atom    2 type  1   force =     0.00000003   -0.00000007    0.00001168
     atom    3 type  2   force =     0.00000002    0.00000000   -0.00003356
     atom    4 type  2   force =    -0.00000002   -0.00000001    0.00017161
     atom    5 type  2   force =    -0.00000000   -0.00000002    0.00441444
     atom    6 type  2   force =    -0.00000021    0.00000011    0.00009608
     atom    7 type  1   force =    -0.00000195   -0.00000948   -0.00000182
     atom    8 type  1   force =     0.00008312    0.00021495   -0.00230758
     atom    9 type  2   force =     0.00001014   -0.00000308   -0.00010734
     atom   10 type  2   force =    -0.00000484   -0.00001650    0.00003744
     atom   11 type  2   force =     0.00000003   -0.00000048   -0.00009359
     atom   12 type  2   force =     0.00023851    0.00037543   -0.00422650
     atom   13 type  1   force =     0.00000004    0.00000000    0.00255965
     atom   14 type  1   force =    -0.00000012    0.00000019    0.00001196
     atom   15 type  2   force =     0.00000001   -0.00000001   -0.00003346
     atom   16 type  2   force =     0.00000001    0.00000000    0.00017163
     atom   17 type  2   force =    -0.00000001   -0.00000000    0.00441436
     atom   18 type  2   force =     0.00000005    0.00000015    0.00009625
     atom   19 type  1   force =    -0.00000800   -0.00001125   -0.00002377
     atom   20 type  1   force =     0.00036865    0.00033675   -0.00196118
     atom   21 type  2   force =     0.00003784   -0.00000563   -0.00007939
     atom   22 type  2   force =    -0.00000043   -0.00002342    0.00003388
     atom   23 type  2   force =     0.00000015   -0.00000042   -0.00009724
     atom   24 type  2   force =     0.00055471    0.00027424   -0.00416599
     atom   25 type  1   force =     0.00000002   -0.00000004    0.00255961
     atom   26 type  1   force =     0.00000005    0.00000008    0.00001229
     atom   27 type  2   force =     0.00000000    0.00000000   -0.00003348
     atom   28 type  2   force =     0.00000000   -0.00000000    0.00017164
     atom   29 type  2   force =     0.00000001   -0.00000006    0.00441443
     atom   30 type  2   force =     0.00000036   -0.00000012    0.00009637
     atom   31 type  1   force =    -0.00001450    0.00000116   -0.00001557
     atom   32 type  1   force =     0.00038332   -0.00002842   -0.00214582
     atom   33 type  2   force =    -0.00001392    0.00001371   -0.00012863
     atom   34 type  2   force =    -0.00001131    0.00000072    0.00003380
     atom   35 type  2   force =    -0.00000038    0.00000063   -0.00009940
     atom   36 type  2   force =     0.00019279   -0.00007966   -0.00431571
     atom   37 type  1   force =    -0.00000001    0.00000000    0.00255963
     atom   38 type  1   force =     0.00000016   -0.00000008    0.00001208
     atom   39 type  2   force =     0.00000001    0.00000001   -0.00003354
     atom   40 type  2   force =    -0.00000002    0.00000001    0.00017161
     atom   41 type  2   force =    -0.00000005    0.00000003    0.00441452
     atom   42 type  2   force =     0.00000025   -0.00000012    0.00009623
     atom   43 type  1   force =    -0.00000594    0.00000341    0.00000906
     atom   44 type  1   force =     0.00006556   -0.00003786   -0.00244508
     atom   45 type  2   force =    -0.00002046    0.00001180   -0.00015414
     atom   46 type  2   force =    -0.00002435    0.00001406    0.00004081
     atom   47 type  2   force =    -0.00000026    0.00000015   -0.00009568
     atom   48 type  2   force =    -0.00000722    0.00000415   -0.00438523
     atom   49 type  1   force =     0.00000001    0.00000009    0.00255962
     atom   50 type  1   force =     0.00000014   -0.00000014    0.00001195
     atom   51 type  2   force =    -0.00000002   -0.00000003   -0.00003359
     atom   52 type  2   force =     0.00000002    0.00000001    0.00017164
     atom   53 type  2   force =     0.00000000    0.00000002    0.00441442
     atom   54 type  2   force =     0.00000014   -0.00000015    0.00009615
     atom   55 type  1   force =    -0.00000014   -0.00000449   -0.00000188
     atom   56 type  1   force =    -0.00006157    0.00024825   -0.00223665
     atom   57 type  2   force =    -0.00001841    0.00005849   -0.00004413
     atom   58 type  2   force =    -0.00000340    0.00000250    0.00004517
     atom   59 type  2   force =    -0.00000033   -0.00000027   -0.00009487
     atom   60 type  2   force =     0.00004799    0.00075675   -0.00396448
[...]
     atom  180 type  2   force =    -0.00063136   -0.00041991   -0.00396447
     atom  181 type  1   force =    -0.00000003   -0.00000002    0.00255966
     atom  182 type  1   force =     0.00000004    0.00000001    0.00001169
     atom  183 type  2   force =    -0.00000002   -0.00000003   -0.00003355
     atom  184 type  2   force =     0.00000000    0.00000001    0.00017163
     atom  185 type  2   force =     0.00000001    0.00000001    0.00441444
     atom  186 type  2   force =    -0.00000024    0.00000011    0.00009607
     atom  187 type  1   force =     0.00000722    0.00000641   -0.00000182
     atom  188 type  1   force =    -0.00014461   -0.00017949   -0.00230756
     atom  189 type  2   force =     0.00000773   -0.00000726   -0.00010734
     atom  190 type  2   force =     0.00001186    0.00001244    0.00003743
     atom  191 type  2   force =     0.00000043    0.00000021   -0.00009359
     atom  192 type  2   force =    -0.00020589   -0.00039432   -0.00422647
     atom  193 type  3   force =     0.00010423   -0.00006017   -0.00626064
     atom  194 type  3   force =     0.00014420   -0.00008330   -0.00643828

     Total force =     0.003095     Total SCF correction =     0.000363
     SCF correction compared to forces is large: reduce conv_thr to get better values
     Energy error            =      3.8E-05 Ry
     Gradient error          =      9.5E-04 Ry/Bohr

     bfgs converged in  32 scf cycles and  31 bfgs steps
     (criteria: energy <  1.0E-04 Ry, force <  1.0E-03 Ry/Bohr)

     End of BFGS Geometry Optimization

     Final energy             =  -32817.5914302635 Ry

     File ./outdir/pwscf.bfgs deleted, as requested
Begin final coordinates

ATOMIC_POSITIONS (angstrom)
Mo            0.0000119917        1.8193638619       -9.1672481230    0   0   0
Mo            1.5756136568        0.9097075315       -3.0554901653    0   0   0
S             0.0000188998        1.8193822938       -4.6232556019    0   0   0
S             1.5756321638        0.9096773839       -7.6014065489    0   0   0
S             1.5756326175        0.9096785128      -10.7330757790    0   0   0
S             0.0000189190        1.8193860094       -1.4877129945    0   0   0
Mo            0.0002715648        1.8192939060        3.0571422831
Mo            1.5866946193        0.8988338371        9.1544506719
S             0.0086408465        1.8142086054        7.5833032176
S             1.5759438288        0.9092210073        4.6244093891
S             1.5761719191        0.9095060469        1.4896265653
S             0.0045466261        1.7939235471       10.7261214481
Mo           -1.5756053507        4.5484193819       -9.1672481230    0   0   0
Mo            0.0000378379        3.6387394919       -3.0554952701    0   0   0
S            -1.5755913433        4.5484363582       -4.6232494962    0   0   0
S             0.0000148214        3.6387329039       -7.6014065489    0   0   0
S             0.0000152751        3.6387340328      -10.7330757790    0   0   0
S            -1.5755906502        4.5484413613       -1.4877305502    0   0   0
Mo           -1.5750086449        4.5484168381        3.0574445224
Mo           -0.0070252106        3.6169813274        9.1654058912
S            -1.5750540420        4.5498027078        7.6068580031
S             0.0006132656        3.6388235766        4.6252546817
S             0.0003326088        3.6386632095        1.4895687519
S            -1.5677882642        4.5309842023       10.7464509928
Mo           -3.1512226931        7.2774749019       -9.1672481230    0   0   0
Mo           -1.5755910988        6.3678216792       -3.0555115988    0   0   0
S            -3.1512162438        7.2774954350       -4.6232578178    0   0   0
S            -1.5756025210        6.3677884239       -7.6014065489    0   0   0
S            -1.5756020673        6.3677895528      -10.7330757790    0   0   0
S            -3.1512127704        7.2774877076       -1.4877200710    0   0   0
Mo           -3.1501832308        7.2770448120        3.0569503812
Mo           -1.5704878875        6.3580171626        9.1935016269
S            -3.1263600143        7.2676243971        7.6076824901
S            -1.5739339328        6.3680052518        4.6251753221
S            -1.5750042764        6.3673344437        1.4891321186
S            -3.1526020688        7.2740932161       10.7500489909
Mo           -4.7268400355       10.0065304219       -9.1672481230    0   0   0
Mo           -3.1512405618        9.0968403586       -3.0554816746    0   0   0
S            -4.7268341792       10.0065523623       -4.6232463762    0   0   0
S            -3.1512198634        9.0968439439       -7.6014065489    0   0   0
S            -3.1512194097        9.0968450728      -10.7330757790    0   0   0
S            -4.7268370797       10.0065537885       -1.4877176751    0   0   0
Mo           -4.7260754649       10.0061129742        3.0570198960
Mo           -3.1371152843        9.0887460311        9.1724941730
S            -4.7053232970        9.9941556774        7.5910740332
S            -3.1500219440        9.0961777773        4.6245074388
S            -3.1505914083        9.0965100315        1.4892353760
S            -4.7195697441       10.0023780524       10.7291741926
Mo            3.1512517547        1.8193638619       -9.1672481230    0   0   0
Mo            4.7269020221        0.9097289540       -3.0554823951    0   0   0
S             3.1512612351        1.8193882564       -4.6232320683    0   0   0
S             4.7268719268        0.9096773839       -7.6014065489    0   0   0
S             4.7268723805        0.9096785128      -10.7330757790    0   0   0
S             3.1512592485        1.8193890201       -1.4877261251    0   0   0
Mo            3.1519393230        1.8190448553        3.0576121907
Mo            4.7359713719        0.8992112608        9.1693935353
S             3.1672593015        1.7959321300        7.5825928817
S             4.7282057681        0.9088842864        4.6246168486
S             4.7271816441        0.9093484792        1.4893253611
S             3.1599431727        1.8044969127       10.7275864542
[...]
S             6.3197574209        7.2774498549       10.7275861998
Mo            4.7268792535       10.0065304219       -9.1672481230    0   0   0
Mo            6.3025111524        9.0968738021       -3.0554915260    0   0   0
S             4.7268840634       10.0065452125       -4.6232380477    0   0   0
S             6.3024994256        9.0968439439       -7.6014065489    0   0   0
S             6.3024998793        9.0968450728      -10.7330757790    0   0   0
S             4.7268847312       10.0065459141       -1.4877283294    0   0   0
Mo            4.7271000164       10.0063823145        3.0571464673
Mo            6.3174656906        9.0927536895        9.1544476359
S             4.7357038900       10.0017068491        7.5832992289
S             6.3030750067        9.0968370978        4.6244137926
S             6.3029411129        9.0965012593        1.4896190325
S             4.7512214903       10.0153909780       10.7261147123
Pd            1.6927759858        6.3002349377       12.0892059904
Pd            4.0638438236        4.9313944741       12.8203606323
End final coordinates

     Writing all to output data dir ./outdir/pwscf.save/

     General routines

     Parallel routines

   This run was terminated on:  17:35:35  11Oct2023

   JOB DONE.
Application 11285698 resources: utime ~967146s, stime ~10286s, Rss ~3517216, inblocks ~0, outblocks ~51331304