     Program PWSCF v.7.3 starts on 22Apr2024 at  7:34:56

     Waiting for input...
     Reading input from standard input
Warning: card &CELL ignored
Warning: card / ignored

     Current dimensions of program PWSCF are:
     Max number of different atomic species (ntypx) = 10
     Max number of k-points (npk) =  40000
     Max angular momentum in pseudopotentials (lmaxx) =  4
     file Mo.pbe-spn-kjpaw_psl.1.0.0.UPF: wavefunction(s)  4S 4D renormalized
     file S.pbe-n-kjpaw_psl.1.0.0.UPF: wavefunction(s)  3S 3P renormalized
     file Pt.pbe-spfn-kjpaw_psl.1.0.0.UPF: wavefunction(s)  5P 4F renormalized
     file Pd.pbe-spn-kjpaw_psl.1.0.0.UPF: wavefunction(s)  4S 5S 4D renormalized

     R & G space division:  proc/nbgrp/npool/nimage =      36
     Subspace diagonalization in iterative solution of the eigenvalue problem:
     one sub-group per band group will be used

     Using Slab Decomposition

     bravais-lattice index     =            0
     lattice parameter (alat)  =      23.8199  a.u.
     unit-cell volume          =   33861.0370 (a.u.)^3
     number of atoms/cell      =          195
     number of atomic types    =            4
     number of electrons       =      1746.00
     number of Kohn-Sham states=         1048
     kinetic-energy cutoff     =      77.0000  Ry
     charge density cutoff     =     539.0000  Ry
     scf convergence threshold =      1.0E-06
     mixing beta               =       0.2000
     number of iterations used =            8  plain     mixing
     energy convergence thresh.=      1.0E-04
     force convergence thresh. =      1.0E-03
     Exchange-correlation= SLA  PW   PBX  PBC
                           (   1   4   3   4   0   0   0)
     nstep                     =         1000

     Effective Screening Medium Method
     Boundary Conditions: Vacuum-Slab-Vacuum
     total charge in unit cell        =   0.0000
     grid points for fit at edges     =        4

     celldm(1)=  23.819920  celldm(2)=   0.000000  celldm(3)=   0.000000
     celldm(4)=   0.000000  celldm(5)=   0.000000  celldm(6)=   0.000000

     crystal axes: (cart. coord. in units of alat)
               a(1) = (   1.000000   0.000000   0.000000 )
               a(2) = (  -0.499999   0.866026   0.000000 )
               a(3) = (   0.000000   0.000000   2.893000 )

     reciprocal axes: (cart. coord. in units 2 pi/alat)
               b(1) = (  1.000000  0.577349  0.000000 )
               b(2) = (  0.000000  1.154700  0.000000 )
               b(3) = (  0.000000  0.000000  0.345662 )

     PseudoPot. # 1 for Mo read from file:
     ./pseudo/Mo.pbe-spn-kjpaw_psl.1.0.0.UPF
     MD5 check sum: 317bf72632116215fd98f72de1686f13
     Pseudo is Projector augmented-wave + core cor, Zval = 14.0
     Generated using 'atomic' code by A. Dal Corso  v.7.2
     Shape of augmentation charge: PSQ
     Using radial grid of 1229 points,  6 beta functions with:
                l(1) =   0
                l(2) =   0
                l(3) =   1
                l(4) =   1
                l(5) =   2
                l(6) =   2
     Q(r) pseudized with 0 coefficients

     PseudoPot. # 2 for S  read from file:
     ./pseudo/S.pbe-n-kjpaw_psl.1.0.0.UPF
     MD5 check sum: 8b7b5302570d38d5e87fed6a1065abda
     Pseudo is Projector augmented-wave + core cor, Zval =  6.0
     Generated using 'atomic' code by A. Dal Corso  v.7.2
     Shape of augmentation charge: PSQ
     Using radial grid of 1151 points,  6 beta functions with:
                l(1) =   0
                l(2) =   0
                l(3) =   1
                l(4) =   1
                l(5) =   2
                l(6) =   2
     Q(r) pseudized with 0 coefficients

     PseudoPot. # 3 for Pt read from file:
     ./pseudo/Pt.pbe-spfn-kjpaw_psl.1.0.0.UPF
     MD5 check sum: 620096ebf4e6ebacc94de60fd67efcb5
     Pseudo is Projector augmented-wave + core cor, Zval = 32.0
     Generated using 'atomic' code by A. Dal Corso  v.7.2
     Shape of augmentation charge: PSQ
     Using radial grid of 1277 points,  8 beta functions with:
                l(1) =   0
                l(2) =   0
                l(3) =   1
                l(4) =   1
                l(5) =   2
                l(6) =   2
                l(7) =   3
                l(8) =   3
     Q(r) pseudized with 0 coefficients

     PseudoPot. # 4 for Pd read from file:
     ./pseudo/Pd.pbe-spn-kjpaw_psl.1.0.0.UPF
     MD5 check sum: a60571a671f2502b8a6a4569d20a6edb
     Pseudo is Projector augmented-wave + core cor, Zval = 18.0
     Generated using 'atomic' code by A. Dal Corso  v.7.2
     Shape of augmentation charge: PSQ
     Using radial grid of 1235 points,  6 beta functions with:
                l(1) =   0
                l(2) =   0
                l(3) =   1
                l(4) =   1
                l(5) =   2
                l(6) =   2
     Q(r) pseudized with 0 coefficients

     atomic species   valence    mass     pseudopotential
     Mo               14.00    95.95000     Mo( 1.00)
     S                 6.00    32.06000     S ( 1.00)
     Pt               32.00   195.08400     Pt( 1.00)
     Pd               18.00   106.42000     Pd( 1.00)

     No symmetry found

   Cartesian axes

     site n.     atom                  positions (alat units)
         1        Mo     tau(   1) = (   0.0000010   0.1443372  -0.7272732  )
         2        Mo     tau(   2) = (   0.1249995   0.0721706  -0.2424038  )
         3        S      tau(   3) = (   0.0000015   0.1443386  -0.3667807  )
         4        S      tau(   4) = (   0.1250010   0.0721682  -0.6030489  )
         5        S      tau(   5) = (   0.1250010   0.0721683  -0.8514963  )
         6        S      tau(   6) = (   0.0000015   0.1443389  -0.1180260  )
         7        Mo     tau(   7) = (   0.0000005   0.1443381   0.2424561  )
         8        Mo     tau(   8) = (   0.1251981   0.0716023   0.7276027  )
         9        S      tau(   9) = (  -0.0003031   0.1454842   0.6052312  )
        10        S      tau(  10) = (   0.1249558   0.0721599   0.3668208  )
        11        S      tau(  11) = (   0.1250088   0.0721517   0.1180857  )
        12        S      tau(  12) = (  -0.0004157   0.1382876   0.8564685  )
        13        Mo     tau(  13) = (  -0.1249989   0.3608437  -0.7272732  )
        14        Mo     tau(  14) = (   0.0000030   0.2886752  -0.2424042  )
        15        S      tau(  15) = (  -0.1249977   0.3608450  -0.3667802  )
        16        S      tau(  16) = (   0.0000012   0.2886747  -0.6030489  )
        17        S      tau(  17) = (   0.0000012   0.2886748  -0.8514963  )
        18        S      tau(  18) = (  -0.1249977   0.3608454  -0.1180274  )
        19        Mo     tau(  19) = (  -0.1249623   0.3608201   0.2425155  )
        20        Mo     tau(  20) = (  -0.0007801   0.2872696   0.7308518  )
        21        S      tau(  21) = (  -0.1240398   0.3604107   0.6055268  )
        22        S      tau(  22) = (   0.0000411   0.2886546   0.3669163  )
        23        S      tau(  23) = (   0.0000035   0.2886726   0.1180964  )
        24        S      tau(  24) = (  -0.1315418   0.3638985   0.8543850  )
        25        Mo     tau(  25) = (  -0.2499987   0.5773502  -0.7272732  )
        26        Mo     tau(  26) = (  -0.1249977   0.5051839  -0.2424055  )
        27        S      tau(  27) = (  -0.2499981   0.5773518  -0.3667809  )
        28        S      tau(  28) = (  -0.1249986   0.5051812  -0.6030489  )
        29        S      tau(  29) = (  -0.1249986   0.5051813  -0.8514963  )
        30        S      tau(  30) = (  -0.2499979   0.5773512  -0.1180266  )
        31        Mo     tau(  31) = (  -0.2499787   0.5773156   0.2425145  )
        32        Mo     tau(  32) = (  -0.1271807   0.5060660   0.7281741  )
        33        S      tau(  33) = (  -0.2502658   0.5775034   0.6017985  )
        34        S      tau(  34) = (  -0.1249543   0.5051367   0.3669386  )
        35        S      tau(  35) = (  -0.1249864   0.5051552   0.1181399  )
        36        S      tau(  36) = (  -0.2525628   0.5785576   0.8514793  )
        37        Mo     tau(  37) = (  -0.3749985   0.7938567  -0.7272732  )
        38        Mo     tau(  38) = (  -0.2500001   0.7216874  -0.2424031  )
        39        S      tau(  39) = (  -0.3749980   0.7938584  -0.3667800  )
        40        S      tau(  40) = (  -0.2499984   0.7216877  -0.6030489  )
        41        S      tau(  41) = (  -0.2499984   0.7216878  -0.8514963  )
        42        S      tau(  42) = (  -0.3749982   0.7938585  -0.1180264  )
        43        Mo     tau(  43) = (  -0.3750043   0.7938372   0.2424536  )
        44        Mo     tau(  44) = (  -0.2503619   0.7218808   0.7263407  )
        45        S      tau(  45) = (  -0.3755748   0.7941519   0.6023691  )
        46        S      tau(  46) = (  -0.2500067   0.7216811   0.3668312  )
        47        S      tau(  47) = (  -0.2499793   0.7216445   0.1181126  )
        48        S      tau(  48) = (  -0.3746959   0.7932047   0.8515893  )
        49        Mo     tau(  49) = (   0.2500010   0.1443372  -0.7272732  )
        50        Mo     tau(  50) = (   0.3750034   0.0721723  -0.2424032  )
        51        S      tau(  51) = (   0.2500017   0.1443391  -0.3667788  )
        52        S      tau(  52) = (   0.3750010   0.0721682  -0.6030489  )
        53        S      tau(  53) = (   0.3750010   0.0721683  -0.8514963  )
        54        S      tau(  54) = (   0.2500016   0.1443391  -0.1180271  )
        55        Mo     tau(  55) = (   0.2500033   0.1443124   0.2424881  )
        56        Mo     tau(  56) = (   0.3752595   0.0716472   0.7255395  )
        57        S      tau(  57) = (   0.2498544   0.1431280   0.6011361  )
        58        S      tau(  58) = (   0.3750516   0.0721435   0.3668117  )
        59        S      tau(  59) = (   0.3750079   0.0721203   0.1180977  )
        60        S      tau(  60) = (   0.2517312   0.1427646   0.8506906  )
[...]
       181        Mo     tau( 181) = (   0.3750016   0.7938567  -0.7272732  )
       182        Mo     tau( 182) = (   0.5000025   0.7216901  -0.2424039  )
       183        S      tau( 183) = (   0.3750019   0.7938578  -0.3667793  )
       184        S      tau( 184) = (   0.5000016   0.7216877  -0.6030489  )
       185        S      tau( 185) = (   0.5000016   0.7216878  -0.8514963  )
       186        S      tau( 186) = (   0.3750020   0.7938579  -0.1180272  )
       187        Mo     tau( 187) = (   0.3749951   0.7938323   0.2424893  )
       188        Mo     tau( 188) = (   0.4998599   0.7217391   0.7271366  )
       189        S      tau( 189) = (   0.3746033   0.7939741   0.6029663  )
       190        S      tau( 190) = (   0.4999946   0.7216688   0.3668260  )
       191        S      tau( 191) = (   0.4999891   0.7216628   0.1180901  )
       192        S      tau( 192) = (   0.3755955   0.7938624   0.8526444  )
       193        Pt     tau( 193) = (   0.1194898   0.4990527   0.9549993  )
       194        Pd     tau( 194) = (   0.0026419   0.2990244   0.9662205  )
       195        Pt     tau( 195) = (   0.7487529   0.2885372   0.9733471  )

     DFT-D3 Dispersion Correction (3-body terms):
       Reference C6 values for interpolation:

[...]
   -40.6722 -40.6651 -40.6650 -40.6650 -40.6650 -40.6650 -40.6649 -40.6649
   -40.6648 -40.6641 -40.6641 -40.6641 -40.6641 -40.6565 -40.6523 -40.6482
   -40.6380 -40.6303 -40.6303 -40.6302 -40.6302 -40.6302 -40.6302 -40.6302
   -40.6302 -40.6297 -40.6293 -40.6293 -40.6293 -40.6293 -40.6184 -40.6181
   -40.6181 -40.6181 -40.6181 -40.6171 -40.6171 -40.6062 -40.6021 -40.6014
   -40.5998 -40.5988 -40.5988 -40.5987 -40.5987 -40.5978 -40.5978 -40.5822
   -40.5818 -40.5818 -40.5818 -40.5817 -40.5808 -40.5808 -40.5780 -40.5686
   -40.5560 -40.5511 -40.5511 -40.5511 -40.5511 -40.5501 -40.5501 -40.5492
   -40.5312 -40.5046 -20.1793 -19.9030 -19.8651 -19.8444 -19.7697 -19.7472
   -19.6602 -19.6473 -19.5848 -19.5099 -19.4277 -19.4213 -19.3380 -19.3273
   -19.2350 -19.2247 -19.1904 -18.9983 -18.8708 -18.8654 -18.8095 -18.7853
   -18.7193 -18.7180 -18.7156 -18.7149 -18.7049 -18.6918 -18.6545 -18.6507
   -18.6449 -18.6431 -18.6006 -18.5853 -18.5721 -18.5567 -18.5517 -18.5454
   -18.5431 -18.5281 -18.5168 -18.4874 -18.4817 -18.4757 -18.4649 -18.4514
   -18.4347 -18.4074 -18.4061 -18.4000 -18.3832 -18.3659 -18.3552 -18.3273
   -18.3224 -18.2979 -18.2768 -18.2674 -18.2455 -18.2340 -18.2150 -18.1958
   -18.1842 -18.1737 -18.1540 -18.1370 -18.1275 -18.1183 -18.1014 -18.0971
   -18.0932 -18.0932 -18.0874 -18.0724 -18.0711 -18.0680 -18.0652 -18.0596
   -18.0592 -18.0554 -18.0485 -18.0470 -18.0397 -18.0310 -18.0064 -18.0050
   -18.0014 -17.9984 -17.9955 -17.9940 -17.9928 -17.9883 -17.9836 -17.9779
   -17.9473 -17.9433 -17.9370 -17.9312 -17.9262 -17.9217 -17.8988 -17.8872
   -17.8847 -17.8756 -17.8724 -17.8558 -17.8414 -17.8391 -17.8366 -17.8359
   -17.8141 -17.8137 -17.8136 -17.8127 -17.8126 -17.8122 -17.8012 -17.7982
   -17.7828 -17.7772 -17.7579 -17.7530 -17.7390 -17.7331 -17.7227 -17.7196
   -17.7138 -17.7134 -12.2197 -12.0719 -11.9133 -11.7267 -11.7014 -11.6735
   -11.6635 -11.6083 -11.5317 -11.5214 -11.5030 -11.4936 -11.4917 -11.4797
   -11.4700 -11.4588 -11.4325 -11.4146 -11.3894 -11.3885 -11.3776 -11.3561
   -11.3517 -11.3425 -11.3231 -11.3053 -11.2929 -11.2789 -11.2718 -11.2678
   -11.2589 -11.2528 -11.2519 -11.2495 -11.2281 -11.2041 -11.1992 -11.1958
   -11.1857 -11.1703 -11.1674 -11.1641 -11.1592 -11.1436 -11.1402 -11.1384
   -11.1287 -11.1060 -11.0848 -11.0733 -11.0599 -11.0410 -11.0294 -11.0167
   -10.9742 -10.9649 -10.9475 -10.9377 -10.9315 -10.9166 -10.9033 -10.8835
   -10.8806 -10.8738 -10.8358 -10.8329 -10.8313 -10.8287 -10.8191 -10.8084
[...]
    -3.3858  -3.3519  -3.3468  -3.3442  -3.3391  -3.3365  -3.3321  -3.3304
    -3.3268  -3.2998  -3.2972  -3.2855  -3.2776  -3.2729  -3.2721  -3.2719
    -3.2692  -3.2639  -3.2581  -3.2445  -3.2369  -3.2322  -3.2258  -3.2243
    -3.2176  -3.2090  -3.2054  -3.2002  -3.1986  -3.1843  -3.1831  -3.1803
    -3.1717  -3.1655  -3.1609  -3.1544  -3.1543  -3.1518  -3.1430  -3.1281
    -3.0950  -3.0871  -3.0808  -3.0750  -3.0669  -3.0560  -3.0517  -3.0316
    -3.0225  -3.0187  -3.0152  -3.0138  -3.0130  -3.0106  -3.0092  -3.0052
    -3.0015  -2.9978  -2.9945  -2.9868  -2.9851  -2.9819  -2.9772  -2.9748
    -2.9705  -2.9670  -2.9646  -2.9605  -2.9553  -2.9442  -2.9398  -2.9378
    -2.9344  -2.9269  -2.9239  -2.9161  -2.9030  -2.8990  -2.8929  -2.8868
    -2.8846  -2.8746  -2.8687  -2.8669  -2.8456  -2.8027  -2.7975  -2.7870
    -2.7805  -2.7507  -2.7411  -2.7266  -2.7167  -2.6655  -2.6292  -2.6054
    -2.5936  -2.5920  -2.5841  -2.5701  -2.5563  -2.5397  -2.5358  -2.5288
    -2.5277  -2.5191  -2.5180  -2.4971  -2.4894  -2.4813  -2.4452  -2.4106
    -2.4047  -2.3969  -2.3926  -2.3859  -2.3775  -2.3764  -2.3464  -2.3419

     the Fermi energy is    -4.7527 ev

!    total energy              =  -35654.94585582 Ry
     total all-electron energy =   -704233.491673 Ry
     estimated scf accuracy    <          5.8E-09 Ry
     smearing contrib. (-TS)   =      -0.00000076 Ry
     internal energy E=F+TS    =  -35654.94585506 Ry

     The total energy is F=E-TS. E is the sum of the following terms:
     one-electron contribution = 1222928.16643672 Ry
     hartree contribution      = -611678.65918988 Ry
     xc contribution           =   -2086.36802452 Ry
     ewald contribution        = -622918.73871383 Ry
     DFT-D3 Dispersion         =      -5.47280185 Ry
     one-center paw contrib.   =  -21893.87356170 Ry

     convergence has been achieved in  12 iterations

     negative rho (up, down):  9.118E-04 0.000E+00

     Forces acting on atoms (cartesian axes, Ry/au):

     atom    1 type  1   force =     0.00000188    0.00000016    0.00068776
     atom    2 type  1   force =     0.00002441   -0.00000719    0.00000414
     atom    3 type  2   force =     0.00000255    0.00000108    0.00000090
     atom    4 type  2   force =     0.00000089    0.00000080    0.00161520
     atom    5 type  2   force =     0.00000057    0.00000028   -0.00236008
     atom    6 type  2   force =    -0.00000102    0.00000426    0.00001278
     atom    7 type  1   force =    -0.00001463   -0.00003089    0.00002061
     atom    8 type  1   force =     0.00053572   -0.00021412    0.00003334
     atom    9 type  2   force =     0.00041296   -0.00002970    0.00056902
     atom   10 type  2   force =     0.00002940   -0.00000044    0.00001203
     atom   11 type  2   force =    -0.00002801   -0.00004961    0.00002761
     atom   12 type  2   force =     0.00043112   -0.00033944    0.00002808
     atom   13 type  1   force =     0.00000193   -0.00000040    0.00068895
     atom   14 type  1   force =    -0.00000947    0.00001078   -0.00000186
     atom   15 type  2   force =     0.00000522    0.00000142    0.00000392
     atom   16 type  2   force =     0.00000104    0.00000080    0.00161526
     atom   17 type  2   force =     0.00000071    0.00000026   -0.00236014
     atom   18 type  2   force =     0.00000943   -0.00000145    0.00001133
     atom   19 type  1   force =    -0.00001916   -0.00001532    0.00000239
     atom   20 type  1   force =    -0.00005174    0.00013652    0.00054885
     atom   21 type  2   force =     0.00094028   -0.00049093   -0.00004613
     atom   22 type  2   force =     0.00000659   -0.00002464   -0.00004857
     atom   23 type  2   force =    -0.00004186   -0.00004836   -0.00001208
     atom   24 type  2   force =     0.00015347    0.00009754    0.00032444
     atom   25 type  1   force =     0.00000246   -0.00000060    0.00068804
     atom   26 type  1   force =     0.00000106   -0.00001091    0.00001351
     atom   27 type  2   force =     0.00000211    0.00000267    0.00000076
     atom   28 type  2   force =     0.00000108    0.00000073    0.00161520
     atom   29 type  2   force =     0.00000077    0.00000014   -0.00236006
     atom   30 type  2   force =     0.00000548   -0.00001001    0.00000814
     atom   31 type  1   force =     0.00000888   -0.00002033    0.00003002
     atom   32 type  1   force =    -0.00001790   -0.00005129   -0.00034641
     atom   33 type  2   force =    -0.00007151    0.00074603    0.00010628
     atom   34 type  2   force =     0.00001426   -0.00000438   -0.00000078
     atom   35 type  2   force =    -0.00001817   -0.00003200   -0.00000682
     atom   36 type  2   force =    -0.00010759    0.00033155   -0.00026580
     atom   37 type  1   force =     0.00000310   -0.00000033    0.00068738
     atom   38 type  1   force =     0.00002825    0.00001892   -0.00000504
     atom   39 type  2   force =     0.00000115    0.00000186    0.00000483
     atom   40 type  2   force =     0.00000102    0.00000082    0.00161521
     atom   41 type  2   force =     0.00000075    0.00000015   -0.00235997
     atom   42 type  2   force =    -0.00000095   -0.00000199    0.00001681
     atom   43 type  1   force =    -0.00001057   -0.00001178    0.00004231
     atom   44 type  1   force =     0.00014523    0.00040468    0.00019796
     atom   45 type  2   force =     0.00000127   -0.00014253   -0.00017698
     atom   46 type  2   force =     0.00004192    0.00001366   -0.00000788
     atom   47 type  2   force =    -0.00003670   -0.00004066    0.00003655
     atom   48 type  2   force =    -0.00000293   -0.00007614    0.00032898
     atom   49 type  1   force =     0.00000219    0.00000015    0.00068813
     atom   50 type  1   force =    -0.00002229   -0.00002850   -0.00000268
     atom   51 type  2   force =     0.00000129    0.00000333    0.00000539
     atom   52 type  2   force =     0.00000072    0.00000070    0.00161537
     atom   53 type  2   force =     0.00000058    0.00000025   -0.00235994
     atom   54 type  2   force =     0.00000036    0.00000076    0.00001270
     atom   55 type  1   force =     0.00002296   -0.00004351   -0.00003902
     atom   56 type  1   force =    -0.00020379   -0.00021043   -0.00019412
     atom   57 type  2   force =     0.00008464    0.00035299   -0.00030287
     atom   58 type  2   force =    -0.00001601   -0.00003180   -0.00000032
     atom   59 type  2   force =     0.00006127    0.00003302   -0.00006834
     atom   60 type  2   force =     0.00026173    0.00010296   -0.00000730
[...]
     atom  181 type  1   force =     0.00000235   -0.00000050    0.00068810
     atom  182 type  1   force =    -0.00001009   -0.00001221    0.00000128
     atom  183 type  2   force =    -0.00000116   -0.00000088    0.00000436
     atom  184 type  2   force =     0.00000078    0.00000067    0.00161530
     atom  185 type  2   force =     0.00000059    0.00000018   -0.00236002
     atom  186 type  2   force =     0.00000045   -0.00000216    0.00000435
     atom  187 type  1   force =     0.00002129    0.00001313   -0.00005029
     atom  188 type  1   force =    -0.00012086    0.00018907   -0.00004218
     atom  189 type  2   force =    -0.00008100   -0.00034617   -0.00042166
     atom  190 type  2   force =    -0.00002736   -0.00002310   -0.00005436
     atom  191 type  2   force =     0.00002955    0.00000940   -0.00005298
     atom  192 type  2   force =    -0.00016655    0.00026985    0.00001554
     atom  193 type  3   force =    -0.00067533    0.00032043   -0.00040825
     atom  194 type  4   force =    -0.00070353    0.00023348   -0.00006693
     atom  195 type  3   force =    -0.00002873    0.00002203    0.00040558

     Total force =     0.003481     Total SCF correction =     0.000502
     SCF correction compared to forces is large: reduce conv_thr to get better values
     Energy error            =      2.6E-05 Ry
     Gradient error          =      9.4E-04 Ry/Bohr

     bfgs converged in  42 scf cycles and  41 bfgs steps
     (criteria: energy <  1.0E-04 Ry, force <  1.0E-03 Ry/Bohr)

     End of BFGS Geometry Optimization

     Final energy             =  -35654.9458558247 Ry

     File ./outdir/pwscf.bfgs deleted, as requested
Begin final coordinates

ATOMIC_POSITIONS (angstrom)
Mo               0.0000119917        1.8193638619       -9.1672481230    0   0   0
Mo               1.5756136568        0.9097075315       -3.0554901653    0   0   0
S                0.0000188998        1.8193822938       -4.6232556019    0   0   0
S                1.5756321638        0.9096773839       -7.6014065489    0   0   0
S                1.5756326175        0.9096785128      -10.7330757790    0   0   0
S                0.0000189190        1.8193860094       -1.4877129945    0   0   0
Mo              -0.0001437386        1.8185336379        3.0577167294
Mo               1.5743536908        0.8927780303        9.1430332844
S               -0.0075588140        1.7786331917        7.5601911717
S                1.5761079365        0.9081499783        4.6236382962
S                1.5753747551        0.9092437023        1.4891273239
S                0.0025758583        1.8029473105       10.7121471622
Mo              -1.5756053507        4.5484193819       -9.1672481230    0   0   0
Mo               0.0000378379        3.6387394919       -3.0554952701    0   0   0
S               -1.5755913433        4.5484363582       -4.6232494962    0   0   0
S                0.0000148214        3.6387329039       -7.6014065489    0   0   0
S                0.0000152751        3.6387340328      -10.7330757790    0   0   0
S               -1.5755906502        4.5484413613       -1.4877305502    0   0   0
Mo              -1.5754843087        4.5476432087        3.0580739922
Mo               0.0229997877        3.5984941235        9.1111073673
S               -1.5986348614        4.5440985029        7.6109716370
S                0.0003873191        3.6381312920        4.6261445692
S                0.0000520201        3.6380527974        1.4901720728
S               -1.4315518055        4.6157283233       10.7033411011
Mo              -3.1512226931        7.2774749019       -9.1672481230    0   0   0
Mo              -1.5755910988        6.3678216792       -3.0555115988    0   0   0
S               -3.1512162438        7.2774954350       -4.6232578178    0   0   0
S               -1.5756025210        6.3677884239       -7.6014065489    0   0   0
S               -1.5756020673        6.3677895528      -10.7330757790    0   0   0
S               -3.1512127704        7.2774877076       -1.4877200710    0   0   0
Mo              -3.1513194666        7.2763066237        3.0572722445
Mo              -1.5846360672        6.3956295348        9.1517902965
S               -3.1679757924        7.2684135419        7.5775729158
S               -1.5750893877        6.3673368317        4.6253848653
S               -1.5755670773        6.3666885210        1.4897359420
S               -3.1593119974        7.2771562472       10.7264828406
Mo              -4.7268400355       10.0065304219       -9.1672481230    0   0   0
Mo              -3.1512405618        9.0968403586       -3.0554816746    0   0   0
S               -4.7268341792       10.0065523623       -4.6232463762    0   0   0
S               -3.1512198634        9.0968439439       -7.6014065489    0   0   0
S               -3.1512194097        9.0968450728      -10.7330757790    0   0   0
S               -4.7268370797       10.0065537885       -1.4877176751    0   0   0
Mo              -4.7270260381       10.0053359010        3.0561982099
Mo              -3.1551644282        9.0872754258        9.1496141786
S               -4.7339465511        9.9868252427        7.5816019505
S               -3.1514236565        9.0959093205        4.6238475001
S               -3.1510155801        9.0956194788        1.4889338273
S               -4.7245395802        9.9994958939       10.7188657945
Mo               3.1512517547        1.8193638619       -9.1672481230    0   0   0
Mo               4.7269020221        0.9097289540       -3.0554823951    0   0   0
S                3.1512612351        1.8193882564       -4.6232320683    0   0   0
S                4.7268719268        0.9096773839       -7.6014065489    0   0   0
S                4.7268723805        0.9096785128      -10.7330757790    0   0   0
S                3.1512592485        1.8193890201       -1.4877261251    0   0   0
Mo               3.1515628577        1.8185469514        3.0567670542
Mo               4.7267676180        0.8965489785        9.1480572025
S                3.1558375441        1.8047295581        7.5749399811
S                4.7276657704        0.9089117824        4.6241357286
S                4.7269038817        0.9086915486        1.4890635953
S                3.1563892318        1.7847863240       10.7172414191
[...]
Mo               4.7268792535       10.0065304219       -9.1672481230    0   0   0
Mo               6.3025111524        9.0968738021       -3.0554915260    0   0   0
S                4.7268840634       10.0065452125       -4.6232380477    0   0   0
S                6.3024994256        9.0968439439       -7.6014065489    0   0   0
S                6.3024998793        9.0968450728      -10.7330757790    0   0   0
S                4.7268847312       10.0065459141       -1.4877283294    0   0   0
Mo               4.7264977122       10.0052621085        3.0570398211
Mo               6.3015162585        9.0812218678        9.1612768258
S                4.7187410771        9.9849415032        7.5962147572
S                6.3023102400        9.0955677553        4.6244900085
S                6.3020195176        9.0956086880        1.4891214099
S                4.7450330736        9.9954421348       10.7423001506
Pt               1.5112350970        6.2715521960       12.0036819139
Pd              -0.2774856815        4.2236144990       12.6322452086
Pt               9.6377799541        3.7054376480       12.0324490077
End final coordinates

     Writing all to output data dir ./outdir/pwscf.save/ :
     XML data file, charge density, pseudopotentials, collected wavefunctions

     General routines

     Parallel routines

   This run was terminated on:  22:28:20  23Apr2024

   JOB DONE.