     Program PWSCF v.7.2 starts on 11Apr2024 at 22:21:50

     Waiting for input...
     Reading input from standard input
Warning: card &CELL ignored
Warning: card / ignored

     Current dimensions of program PWSCF are:
     Max number of different atomic species (ntypx) = 10
     Max number of k-points (npk) =  40000
     Max angular momentum in pseudopotentials (lmaxx) =  4
     file Mo.pbe-spn-kjpaw_psl.1.0.0.UPF: wavefunction(s)  4S 4D renormalized
     file C.pbe-n-kjpaw_psl.1.0.0.UPF: wavefunction(s)  2S 2P renormalized
     Found identity + ( -0.0000 -0.5000  0.0000) symmetry
     This is a supercell, fractional translations are disabled

     R & G space division:  proc/nbgrp/npool/nimage =      36
     Subspace diagonalization in iterative solution of the eigenvalue problem:
     one sub-group per band group will be used

     Using Slab Decomposition

     bravais-lattice index     =            0
     lattice parameter (alat)  =      29.4279  a.u.
     unit-cell volume          =   34581.2094 (a.u.)^3
     number of atoms/cell      =          144
     number of atomic types    =            2
     number of electrons       =      1536.00
     number of Kohn-Sham states=          922
     kinetic-energy cutoff     =      77.0000  Ry
     charge density cutoff     =     539.0000  Ry
     scf convergence threshold =      1.0E-06
     mixing beta               =       0.2000
     number of iterations used =            8  plain     mixing
     energy convergence thresh.=      1.0E-04
     force convergence thresh. =      1.0E-03
     Exchange-correlation= SLA  PW   PBX  PBC
                           (   1   4   3   4   0   0   0)
     nstep                     =         1000

     Effective Screening Medium Method
     Boundary Conditions: Vacuum-Slab-Vacuum
     total charge in unit cell        =   0.0000
     grid points for fit at edges     =        4

     celldm(1)=  29.427889  celldm(2)=   0.000000  celldm(3)=   0.000000
     celldm(4)=   0.000000  celldm(5)=   0.000000  celldm(6)=   0.000000

     crystal axes: (cart. coord. in units of alat)
               a(1) = (   1.000000   0.000000   0.000000 )
               a(2) = (  -0.000001   0.982188   0.000000 )
               a(3) = (   0.000000   0.000000   1.381555 )

     reciprocal axes: (cart. coord. in units 2 pi/alat)
               b(1) = (  1.000000  0.000001  0.000000 )
               b(2) = (  0.000000  1.018135  0.000000 )
               b(3) = (  0.000000  0.000000  0.723822 )

     PseudoPot. # 1 for Mo read from file:
     ./pseudo/Mo.pbe-spn-kjpaw_psl.1.0.0.UPF
     MD5 check sum: 317bf72632116215fd98f72de1686f13
     Pseudo is Projector augmented-wave + core cor, Zval = 14.0
     Generated using 'atomic' code by A. Dal Corso  v.7.2
     Shape of augmentation charge: PSQ
     Using radial grid of 1229 points,  6 beta functions with:
                l(1) =   0
                l(2) =   0
                l(3) =   1
                l(4) =   1
                l(5) =   2
                l(6) =   2
     Q(r) pseudized with 0 coefficients

     PseudoPot. # 2 for C  read from file:
     ./pseudo/C.pbe-n-kjpaw_psl.1.0.0.UPF
     MD5 check sum: 6b0792899573946bb42fe395835041da
     Pseudo is Projector augmented-wave + core cor, Zval =  4.0
     Generated using 'atomic' code by A. Dal Corso  v.7.2
     Shape of augmentation charge: PSQ
     Using radial grid of 1073 points,  4 beta functions with:
                l(1) =   0
                l(2) =   0
                l(3) =   1
                l(4) =   1
     Q(r) pseudized with 0 coefficients

     atomic species   valence    mass     pseudopotential
        Mo            14.00    95.95000     Mo( 1.00)
        C              4.00    12.01100     C ( 1.00)

     No symmetry found

   Cartesian axes

     site n.     atom                  positions (alat units)
         1           Mo  tau(   1) = (   0.3068977   0.1315491   0.1465471  )
         2           Mo  tau(   2) = (   0.0264339   0.4529155   0.2091611  )
         3           Mo  tau(   3) = (   0.1402319   0.2073696   0.2091614  )
         4           Mo  tau(   4) = (   0.1931007   0.3770988   0.1465480  )
         5           Mo  tau(   5) = (   0.0264341   0.3023794   0.0879712  )
         6           Mo  tau(   6) = (   0.3068983   0.4690253   0.0292901  )
         7           Mo  tau(   7) = (   0.1931006   0.2234773   0.0292879  )
         8           Mo  tau(   8) = (   0.1402322   0.0568313   0.0879704  )
         9           C   tau(   9) = (   0.2500000   0.2549619   0.1486346  )
        10           C   tau(  10) = (   0.0833321   0.3295058   0.2070755  )
        11           C   tau(  11) = (   0.0833324   0.0839574   0.2070737  )
        12           C   tau(  12) = (   0.2500000   0.0094141   0.1486344  )
        13           Mo  tau(  13) = (   0.3068977   0.3184864  -0.0919023  )
        14           Mo  tau(  14) = (   0.0264336   0.1487588  -0.0292882  )
        15           Mo  tau(  15) = (   0.1402319   0.3943069  -0.0292879  )
        16           Mo  tau(  16) = (   0.1931003   0.0729421  -0.0919014  )
        17           Mo  tau(  17) = (   0.0264341   0.4893167  -0.1504781  )
        18           Mo  tau(  18) = (   0.3068980   0.1648686  -0.2091592  )
        19           Mo  tau(  19) = (   0.1931006   0.4104146  -0.2091614  )
        20           Mo  tau(  20) = (   0.1402322   0.2437686  -0.1504790  )
        21           C   tau(  21) = (   0.2500000   0.4418992  -0.0898147  )
        22           C   tau(  22) = (   0.0833317   0.0253491  -0.0313739  )
        23           C   tau(  23) = (   0.0833324   0.2708947  -0.0313756  )
        24           C   tau(  24) = (   0.2500000   0.1963514  -0.0898149  )
        25           Mo  tau(  25) = (   0.3068974   0.6226431   0.1465471  )
        26           Mo  tau(  26) = (   0.0264336   0.9440095   0.2091611  )
        27           Mo  tau(  27) = (   0.1402316   0.6984636   0.2091614  )
        28           Mo  tau(  28) = (   0.1931004   0.8681928   0.1465480  )
        29           Mo  tau(  29) = (   0.0264338   0.7934734   0.0879712  )
        30           Mo  tau(  30) = (   0.3068980   0.9601193   0.0292901  )
        31           Mo  tau(  31) = (   0.1931003   0.7145713   0.0292879  )
        32           Mo  tau(  32) = (   0.1402319   0.5479254   0.0879704  )
        33           C   tau(  33) = (   0.2499997   0.7460559   0.1486346  )
        34           C   tau(  34) = (   0.0833318   0.8205998   0.2070755  )
        35           C   tau(  35) = (   0.0833321   0.5750514   0.2070737  )
        36           C   tau(  36) = (   0.2499997   0.5005081   0.1486344  )
        37           Mo  tau(  37) = (   0.3068974   0.8095804  -0.0919023  )
        38           Mo  tau(  38) = (   0.0264332   0.6398528  -0.0292882  )
        39           Mo  tau(  39) = (   0.1402316   0.8854009  -0.0292879  )
        40           Mo  tau(  40) = (   0.1931000   0.5640361  -0.0919014  )
        41           Mo  tau(  41) = (   0.0264338   0.9804107  -0.1504781  )
        42           Mo  tau(  42) = (   0.3068977   0.6559626  -0.2091592  )
        43           Mo  tau(  43) = (   0.1931003   0.9015086  -0.2091614  )
        44           Mo  tau(  44) = (   0.1402319   0.7348627  -0.1504790  )
        45           C   tau(  45) = (   0.2499997   0.9329932  -0.0898147  )
        46           C   tau(  46) = (   0.0833314   0.5164431  -0.0313739  )
        47           C   tau(  47) = (   0.0833321   0.7619887  -0.0313756  )
        48           C   tau(  48) = (   0.2499997   0.6874454  -0.0898149  )
        49           Mo  tau(  49) = (   0.6402311   0.1315491   0.1465471  )
        50           Mo  tau(  50) = (   0.3597672   0.4529155   0.2091611  )
        51           Mo  tau(  51) = (   0.4735652   0.2073696   0.2091614  )
        52           Mo  tau(  52) = (   0.5264340   0.3770988   0.1465480  )
        53           Mo  tau(  53) = (   0.3597674   0.3023794   0.0879712  )
        54           Mo  tau(  54) = (   0.6402316   0.4690253   0.0292901  )
        55           Mo  tau(  55) = (   0.5264339   0.2234773   0.0292879  )
        56           Mo  tau(  56) = (   0.4735655   0.0568313   0.0879704  )
        57           C   tau(  57) = (   0.5833334   0.2549619   0.1486346  )
        58           C   tau(  58) = (   0.4166654   0.3295058   0.2070755  )
        59           C   tau(  59) = (   0.4166657   0.0839574   0.2070737  )
        60           C   tau(  60) = (   0.5833334   0.0094141   0.1486344  )
[...]
       130           C   tau( 130) = (   0.7499984   0.8205998   0.2070755  )
       131           C   tau( 131) = (   0.7499988   0.5750514   0.2070737  )
       132           C   tau( 132) = (   0.9166664   0.5005081   0.1486344  )
       133           Mo  tau( 133) = (   0.9735641   0.8095804  -0.0919023  )
       134           Mo  tau( 134) = (   0.6930999   0.6398528  -0.0292882  )
       135           Mo  tau( 135) = (   0.8068982   0.8854009  -0.0292879  )
       136           Mo  tau( 136) = (   0.8597667   0.5640361  -0.0919014  )
       137           Mo  tau( 137) = (   0.6931005   0.9804107  -0.1504781  )
       138           Mo  tau( 138) = (   0.9735644   0.6559626  -0.2091592  )
       139           Mo  tau( 139) = (   0.8597669   0.9015086  -0.2091614  )
       140           Mo  tau( 140) = (   0.8068986   0.7348627  -0.1504790  )
       141           C   tau( 141) = (   0.9166664   0.9329932  -0.0898147  )
       142           C   tau( 142) = (   0.7499981   0.5164431  -0.0313739  )
       143           C   tau( 143) = (   0.7499988   0.7619887  -0.0313756  )
       144           C   tau( 144) = (   0.9166664   0.6874454  -0.0898149  )

     DFT-D3 Dispersion Correction (3-body terms):
       Reference C6 values for interpolation:

         atom   Coordination number   C6
         C          0.000            98.23
         C          0.987            86.49
         C          1.998            58.72
         C          2.999            51.56
         C          3.984            36.41
         Mo         0.000          1691.79
         Mo         1.942          1004.01
         Mo        11.056           674.22

       Values used:

         atom   Coordination number  R0_AB[au]  C6      C8
         Mo        10.971            3.547    674.22  77634.20
         Mo         8.283            3.547    674.22  77634.20
         Mo         8.283            3.547    674.22  77634.20
         Mo        10.971            3.547    674.22  77634.20
         Mo        12.694            3.547    674.22  77634.20
         Mo        13.583            3.547    674.22  77634.20
         Mo        13.583            3.547    674.22  77634.20
         Mo        12.695            3.547    674.22  77634.20
         C          5.031            2.750     36.41   1053.14
         C          4.020            2.750     36.62   1059.01
         C          4.020            2.750     36.62   1059.01
         C          5.031            2.750     36.41   1053.14
         Mo        12.634            3.547    674.22  77634.20
         Mo        13.578            3.547    674.22  77634.20
[...]
     atom   20 type  1   force =     0.00000000    0.00000000    0.00000000
     atom   21 type  2   force =     0.00000000    0.00000000    0.00000000
     atom   22 type  2   force =     0.00000000    0.00000000    0.00000000
     atom   23 type  2   force =     0.00000000    0.00000000    0.00000000
     atom   24 type  2   force =     0.00000000    0.00000000    0.00000000
     atom   25 type  1   force =    -0.00000858   -0.00002764    0.00002307
     atom   26 type  1   force =    -0.00001816    0.00005428    0.00000068
     atom   27 type  1   force =    -0.00000886    0.00000049    0.00003283
     atom   28 type  1   force =    -0.00000231    0.00005717    0.00000143
     atom   29 type  1   force =    -0.00002912    0.00003941   -0.00000743
     atom   30 type  1   force =    -0.00000063    0.00005942   -0.00003685
     atom   31 type  1   force =    -0.00000336    0.00002570   -0.00002952
     atom   32 type  1   force =    -0.00000379   -0.00004921    0.00002326
     atom   33 type  2   force =     0.00000064    0.00000698    0.00000720
     atom   34 type  2   force =    -0.00000622    0.00001149    0.00000790
     atom   35 type  2   force =    -0.00000363   -0.00001341    0.00001065
     atom   36 type  2   force =    -0.00000277   -0.00001820    0.00000824
     atom   37 type  1   force =     0.00000000    0.00000000    0.00000000
     atom   38 type  1   force =     0.00000000    0.00000000    0.00000000
     atom   39 type  1   force =     0.00000000    0.00000000    0.00000000
     atom   40 type  1   force =     0.00000000    0.00000000    0.00000000
     atom   41 type  1   force =     0.00000000    0.00000000    0.00000000
     atom   42 type  1   force =     0.00000000    0.00000000    0.00000000
     atom   43 type  1   force =     0.00000000    0.00000000    0.00000000
     atom   44 type  1   force =     0.00000000    0.00000000    0.00000000
     atom   45 type  2   force =     0.00000000    0.00000000    0.00000000
     atom   46 type  2   force =     0.00000000    0.00000000    0.00000000
     atom   47 type  2   force =     0.00000000    0.00000000    0.00000000
     atom   48 type  2   force =     0.00000000    0.00000000    0.00000000
     atom   49 type  1   force =     0.00000251    0.00001800   -0.00000544
     atom   50 type  1   force =    -0.00000232   -0.00005948    0.00001877
     atom   51 type  1   force =     0.00000892   -0.00000389   -0.00001340
     atom   52 type  1   force =     0.00001439   -0.00005202    0.00001624
     atom   53 type  1   force =    -0.00000512   -0.00004524    0.00001749
     atom   54 type  1   force =    -0.00000173   -0.00004198    0.00002014
     atom   55 type  1   force =     0.00000791   -0.00002753    0.00001553
     atom   56 type  1   force =     0.00002078    0.00004119   -0.00001521
     atom   57 type  2   force =     0.00000271   -0.00000666   -0.00000034
     atom   58 type  2   force =     0.00000059   -0.00001218   -0.00000114
     atom   59 type  2   force =     0.00000355    0.00001319   -0.00000415
     atom   60 type  2   force =     0.00000318    0.00001600   -0.00000406
[...]
     atom  130 type  2   force =    -0.00000013    0.00001084    0.00000385
     atom  131 type  2   force =     0.00000233   -0.00001077    0.00000812
     atom  132 type  2   force =    -0.00000281   -0.00001454    0.00000866
     atom  133 type  1   force =     0.00000000    0.00000000    0.00000000
     atom  134 type  1   force =     0.00000000    0.00000000    0.00000000
     atom  135 type  1   force =     0.00000000    0.00000000    0.00000000
     atom  136 type  1   force =     0.00000000    0.00000000    0.00000000
     atom  137 type  1   force =     0.00000000    0.00000000    0.00000000
     atom  138 type  1   force =     0.00000000    0.00000000    0.00000000
     atom  139 type  1   force =     0.00000000    0.00000000    0.00000000
     atom  140 type  1   force =     0.00000000    0.00000000    0.00000000
     atom  141 type  2   force =     0.00000000    0.00000000    0.00000000
     atom  142 type  2   force =     0.00000000    0.00000000    0.00000000
     atom  143 type  2   force =     0.00000000    0.00000000    0.00000000
     atom  144 type  2   force =     0.00000000    0.00000000    0.00000000

     DFT-D3 dispersion contribution to forces:
     atom    1 type  1   force =    -0.00025370    0.00018927   -0.00617791
     atom    2 type  1   force =    -0.00006657   -0.00013112   -0.00689407
     atom    3 type  1   force =     0.00006653   -0.00013119   -0.00689411
     atom    4 type  1   force =     0.00025375    0.00018930   -0.00617791
     atom    5 type  1   force =    -0.00032190    0.00004770   -0.00455408
     atom    6 type  1   force =    -0.00008905   -0.00010242   -0.00136892
     atom    7 type  1   force =     0.00008900   -0.00010247   -0.00136877
     atom    8 type  1   force =     0.00032184    0.00004773   -0.00455410
     atom    9 type  2   force =     0.00015750    0.00004727   -0.00233772
     atom   10 type  2   force =    -0.00006590    0.00005801   -0.00258425
     atom   11 type  2   force =     0.00006588    0.00005802   -0.00258429
     atom   12 type  2   force =    -0.00015748    0.00004729   -0.00233773
     atom   13 type  1   force =     0.00031232    0.00027913    0.00499484
     atom   14 type  1   force =     0.00021227   -0.00016349    0.00208642
     atom   15 type  1   force =    -0.00021200   -0.00016336    0.00208539
     atom   16 type  1   force =    -0.00031273    0.00027756    0.00499477
     atom   17 type  1   force =     0.00030486   -0.00005251    0.00633390
     atom   18 type  1   force =     0.00032488   -0.00021482    0.00794803
     atom   19 type  1   force =    -0.00032482   -0.00021389    0.00795206
     atom   20 type  1   force =    -0.00030462   -0.00005075    0.00633451
     atom   21 type  2   force =     0.00009097   -0.00004080    0.00185886
     atom   22 type  2   force =     0.00001041    0.00008277    0.00069280
     atom   23 type  2   force =    -0.00001040    0.00008278    0.00069284
     atom   24 type  2   force =    -0.00009108   -0.00004074    0.00185909
     atom   25 type  1   force =    -0.00025370    0.00018941   -0.00617791
     atom   26 type  1   force =    -0.00006659   -0.00013112   -0.00689415
     atom   27 type  1   force =     0.00006654   -0.00013106   -0.00689412
     atom   28 type  1   force =     0.00025373    0.00018938   -0.00617792
     atom   29 type  1   force =    -0.00032189    0.00004783   -0.00455405
     atom   30 type  1   force =    -0.00008903   -0.00010242   -0.00136884
     atom   31 type  1   force =     0.00008901   -0.00010226   -0.00136871
     atom   32 type  1   force =     0.00032183    0.00004786   -0.00455413
     atom   33 type  2   force =     0.00015748    0.00004732   -0.00233773
     atom   34 type  2   force =    -0.00006590    0.00005804   -0.00258427
     atom   35 type  2   force =     0.00006589    0.00005804   -0.00258427
     atom   36 type  2   force =    -0.00015748    0.00004732   -0.00233771
     atom   37 type  1   force =     0.00031234    0.00027918    0.00499491
     atom   38 type  1   force =     0.00021228   -0.00016337    0.00208639
     atom   39 type  1   force =    -0.00021203   -0.00016331    0.00208545
     atom   40 type  1   force =    -0.00031273    0.00027763    0.00499468
     atom   41 type  1   force =     0.00030485   -0.00005252    0.00633402
     atom   42 type  1   force =     0.00032488   -0.00021477    0.00794802
     atom   43 type  1   force =    -0.00032483   -0.00021389    0.00795206
     atom   44 type  1   force =    -0.00030463   -0.00005071    0.00633454
     atom   45 type  2   force =     0.00009097   -0.00004079    0.00185890
     atom   46 type  2   force =     0.00001042    0.00008279    0.00069277
     atom   47 type  2   force =    -0.00001039    0.00008283    0.00069286
     atom   48 type  2   force =    -0.00009108   -0.00004071    0.00185909
     atom   49 type  1   force =    -0.00025372    0.00018926   -0.00617790
     atom   50 type  1   force =    -0.00006648   -0.00013112   -0.00689407
     atom   51 type  1   force =     0.00006661   -0.00013119   -0.00689413
     atom   52 type  1   force =     0.00025379    0.00018930   -0.00617791
     atom   53 type  1   force =    -0.00032176    0.00004771   -0.00455409
     atom   54 type  1   force =    -0.00008909   -0.00010241   -0.00136889
     atom   55 type  1   force =     0.00008906   -0.00010245   -0.00136870
     atom   56 type  1   force =     0.00032192    0.00004774   -0.00455408
     atom   57 type  2   force =     0.00015750    0.00004727   -0.00233773
     atom   58 type  2   force =    -0.00006587    0.00005801   -0.00258427
     atom   59 type  2   force =     0.00006590    0.00005802   -0.00258429
     atom   60 type  2   force =    -0.00015747    0.00004729   -0.00233774
[...]
     atom  130 type  2   force =    -0.00006590    0.00005804   -0.00258429
     atom  131 type  2   force =     0.00006587    0.00005805   -0.00258428
     atom  132 type  2   force =    -0.00015751    0.00004731   -0.00233771
     atom  133 type  1   force =     0.00031229    0.00027919    0.00499493
     atom  134 type  1   force =     0.00021232   -0.00016337    0.00208644
     atom  135 type  1   force =    -0.00021206   -0.00016330    0.00208550
     atom  136 type  1   force =    -0.00031276    0.00027763    0.00499473
     atom  137 type  1   force =     0.00030486   -0.00005252    0.00633407
     atom  138 type  1   force =     0.00032486   -0.00021477    0.00794802
     atom  139 type  1   force =    -0.00032485   -0.00021390    0.00795208
     atom  140 type  1   force =    -0.00030463   -0.00005070    0.00633459
     atom  141 type  2   force =     0.00009096   -0.00004079    0.00185892
     atom  142 type  2   force =     0.00001041    0.00008280    0.00069279
     atom  143 type  2   force =    -0.00001039    0.00008283    0.00069288
     atom  144 type  2   force =    -0.00009109   -0.00004071    0.00185910

     Total force =     0.006266     Total SCF correction =     0.000334

     Computing stress (Cartesian axis) and pressure

     negative rho (up, down):  1.762E-03 0.000E+00
          total   stress  (Ry/bohr**3)                   (kbar)     P=      -22.62
  -0.00019862   0.00000000   0.00000000          -29.22        0.00        0.00
   0.00000000  -0.00026277   0.00000000            0.00      -38.65        0.00
   0.00000000   0.00000000   0.00000000            0.00        0.00        0.00

     Energy error            =      8.5E-05 Ry
     Gradient error          =      8.5E-04 Ry/Bohr

     bfgs converged in  14 scf cycles and  13 bfgs steps
     (criteria: energy <  1.0E-04 Ry, force <  1.0E-03 Ry/Bohr)

     End of BFGS Geometry Optimization

     Final energy             =  -35819.6412053655 Ry

     File ./outdir/pwscf.bfgs deleted, as requested
Begin final coordinates

ATOMIC_POSITIONS (angstrom)
Mo            4.7411178583        1.9960240522        2.1690337257
Mo            0.5496254194        7.1052719655        3.0060029684
Mo            2.0457465545        3.2814370928        3.0059755347
Mo            3.0451350170        5.8198290238        2.1690516551
Mo            0.3727447254        4.6620370990        1.3799900151
Mo            4.7712582255        7.3489020569        0.4316149557
Mo            3.0149924498        3.5250833802        0.4316097817
Mo            2.2226028038        0.8382424273        1.3799996910
C             3.8927919788        3.9075010433        2.4241904068
C             1.3814069191        5.2054129151        3.2479392368
C             1.2139482210        1.3816255806        3.2479501053
C             3.8934845947        0.0837149870        2.4241916788
Mo            4.7791860412        4.9596506914       -1.4311543936    0   0   0
Mo            0.4116383390        2.3165567298       -0.4560928255    0   0   0
Mo            2.1837703106        6.1403709164       -0.4560880931    0   0   0
Mo            3.0070683108        1.1358954760       -1.4311401853    0   0   0
Mo            0.4116466944        7.6199172186       -2.3433307844    0   0   0
Mo            4.7791900244        2.5674272998       -3.2571459321    0   0   0
Mo            3.0070717624        6.3912087293       -3.2571803522    0   0   0
Mo            2.1837754735        3.7961038167       -2.3433441476    0   0   0
C             3.8931425154        6.8815048952       -1.3986458136    0   0   0
C             1.2976892501        0.3947500953       -0.4885718280    0   0   0
C             1.2976995476        4.2185265543       -0.4885987828    0   0   0
C             3.8931422824        3.0576948975       -1.3986489720    0   0   0
Mo            4.7411145108        9.6436623946        2.1690408149
Mo            0.5496252422       14.7528490879        3.0059764969
Mo            2.0457296703       10.9290855025        3.0059693890
Mo            3.0451332114       13.4674519023        2.1690395558
Mo            0.3727345304       12.3096906597        1.3799734728
Mo            4.7712507417       14.9964895698        0.4316022012
Mo            3.0150098969       11.1727640252        0.4315980675
Mo            2.2226103042        8.4858842542        1.3800197114
C             3.8927971369       11.5551318324        2.4242043837
C             1.3813978712       12.8530394360        3.2479416551
C             1.2139494692        9.0292459654        3.2479553683
C             3.8934910134        7.7313262059        2.4241972918
Mo            4.7791812951       12.6072458144       -1.4311543936    0   0   0
Mo            0.4116335930        9.9641518527       -0.4560928255    0   0   0
Mo            2.1837655645       13.7879660394       -0.4560880931    0   0   0
Mo            3.0070635647        8.7834905990       -1.4311401853    0   0   0
Mo            0.4116419484       15.2675123416       -2.3433307844    0   0   0
Mo            4.7791852783       10.2150224228       -3.2571459321    0   0   0
Mo            3.0070670163       14.0388038523       -3.2571803522    0   0   0
Mo            2.1837707275       11.4436989397       -2.3433441476    0   0   0
C             3.8931377693       14.5291000182       -1.3986458136    0   0   0
C             1.2976845040        8.0423452183       -0.4885718280    0   0   0
C             1.2976948015       11.8661216773       -0.4885987828    0   0   0
C             3.8931375364       10.7052900205       -1.3986489720    0   0   0
Mo            9.9319674571        1.9960201050        2.1690211928
Mo            5.7405241489        7.1052713681        3.0060002216
Mo            7.2366279879        3.2814406824        3.0059868584
Mo            8.2360042426        5.8198282278        2.1690432654
Mo            5.5636498801        4.6620375657        1.3799934098
Mo            9.9621084360        7.3489159077        0.4316135821
Mo            8.2058722331        3.5250910009        0.4316026230
Mo            7.4135021392        0.8382510297        1.3799866105
C             9.0836570861        3.9075013125        2.4241981175
C             6.5722833878        5.2054083323        3.2479469521
C             6.4048328704        1.3816251107        3.2479483976
C             9.0843239683        0.0837154111        2.4241993380
[...]
C            11.7630850382       12.8530377875        3.2479475493
C            11.5956523453        9.0292505754        3.2479713231
C            14.2751641106        7.7313148055        2.4242058292
Mo           15.1608935731       12.6072458144       -1.4311543936    0   0   0
Mo           10.7933458710        9.9641518527       -0.4560928255    0   0   0
Mo           12.5654778425       13.7879660394       -0.4560880931    0   0   0
Mo           13.3887758427        8.7834905990       -1.4311401853    0   0   0
Mo           10.7933542264       15.2675123416       -2.3433307844    0   0   0
Mo           15.1608975563       10.2150224228       -3.2571459321    0   0   0
Mo           13.3887792943       14.0388038523       -3.2571803522    0   0   0
Mo           12.5654830055       11.4436989397       -2.3433441476    0   0   0
C            14.2748500473       14.5291000182       -1.3986458136    0   0   0
C            11.6793967820        8.0423452183       -0.4885718280    0   0   0
C            11.6794070795       11.8661216773       -0.4885987828    0   0   0
C            14.2748498144       10.7052900205       -1.3986489720    0   0   0
End final coordinates

     Writing all to output data dir ./outdir/pwscf.save/

     General routines

     Parallel routines

   This run was terminated on:   0:43:52  13Apr2024

   JOB DONE.
Application 12055194 resources: utime ~3379792s, stime ~36938s, Rss ~2893208, inblocks ~0, outblocks ~47562064