     Program PWSCF v.7.2 starts on 29Aug2023 at  3:46: 4

     Waiting for input...
     Reading input from standard input
Warning: card &CELL ignored
Warning: card / ignored

     Current dimensions of program PWSCF are:
     Max number of different atomic species (ntypx) = 10
     Max number of k-points (npk) =  40000
     Max angular momentum in pseudopotentials (lmaxx) =  4
     file Mo.pbe-spn-kjpaw_psl.1.0.0.UPF: wavefunction(s)  4S 4D renormalized
     file S.pbe-n-kjpaw_psl.1.0.0.UPF: wavefunction(s)  3S 3P renormalized
     file Pd.pbe-spn-kjpaw_psl.1.0.0.UPF: wavefunction(s)  4S 5S 4D renormalized
     file H.pbe-kjpaw_psl.1.0.0.UPF: wavefunction(s)  1S renormalized

     R & G space division:  proc/nbgrp/npool/nimage =      36
     Subspace diagonalization in iterative solution of the eigenvalue problem:
     one sub-group per band group will be used

     Using Slab Decomposition

     bravais-lattice index     =            0
     lattice parameter (alat)  =      23.8199  a.u.
     unit-cell volume          =   33861.0370 (a.u.)^3
     number of atoms/cell      =          194
     number of atomic types    =            4
     number of electrons       =      1683.00
     number of Kohn-Sham states=         1010
     kinetic-energy cutoff     =      77.0000  Ry
     charge density cutoff     =     539.0000  Ry
     scf convergence threshold =      1.0E-06
     mixing beta               =       0.2000
     number of iterations used =            8  plain     mixing
     energy convergence thresh.=      1.0E-04
     force convergence thresh. =      1.0E-03
     Exchange-correlation= SLA  PW   PBX  PBC
                           (   1   4   3   4   0   0   0)
     nstep                     =         1000

     Effective Screening Medium Method
     Boundary Conditions: Vacuum-Slab-Vacuum
     total charge in unit cell        =   0.0000
     grid points for fit at edges     =        4

     celldm(1)=  23.819920  celldm(2)=   0.000000  celldm(3)=   0.000000
     celldm(4)=   0.000000  celldm(5)=   0.000000  celldm(6)=   0.000000

     crystal axes: (cart. coord. in units of alat)
               a(1) = (   1.000000   0.000000   0.000000 )
               a(2) = (  -0.499999   0.866026   0.000000 )
               a(3) = (   0.000000   0.000000   2.893000 )

     reciprocal axes: (cart. coord. in units 2 pi/alat)
               b(1) = (  1.000000  0.577349  0.000000 )
               b(2) = (  0.000000  1.154700  0.000000 )
               b(3) = (  0.000000  0.000000  0.345662 )

     PseudoPot. # 1 for Mo read from file:
     ./pseudo/Mo.pbe-spn-kjpaw_psl.1.0.0.UPF
     MD5 check sum: 317bf72632116215fd98f72de1686f13
     Pseudo is Projector augmented-wave + core cor, Zval = 14.0
     Generated using 'atomic' code by A. Dal Corso  v.7.2
     Shape of augmentation charge: PSQ
     Using radial grid of 1229 points,  6 beta functions with:
                l(1) =   0
                l(2) =   0
                l(3) =   1
                l(4) =   1
                l(5) =   2
                l(6) =   2
     Q(r) pseudized with 0 coefficients

     PseudoPot. # 2 for S  read from file:
     ./pseudo/S.pbe-n-kjpaw_psl.1.0.0.UPF
     MD5 check sum: 8b7b5302570d38d5e87fed6a1065abda
     Pseudo is Projector augmented-wave + core cor, Zval =  6.0
     Generated using 'atomic' code by A. Dal Corso  v.7.2
     Shape of augmentation charge: PSQ
     Using radial grid of 1151 points,  6 beta functions with:
                l(1) =   0
                l(2) =   0
                l(3) =   1
                l(4) =   1
                l(5) =   2
                l(6) =   2
     Q(r) pseudized with 0 coefficients

     PseudoPot. # 3 for Pd read from file:
     ./pseudo/Pd.pbe-spn-kjpaw_psl.1.0.0.UPF
     MD5 check sum: a60571a671f2502b8a6a4569d20a6edb
     Pseudo is Projector augmented-wave + core cor, Zval = 18.0
     Generated using 'atomic' code by A. Dal Corso  v.7.2
     Shape of augmentation charge: PSQ
     Using radial grid of 1235 points,  6 beta functions with:
                l(1) =   0
                l(2) =   0
                l(3) =   1
                l(4) =   1
                l(5) =   2
                l(6) =   2
     Q(r) pseudized with 0 coefficients

     PseudoPot. # 4 for H  read from file:
     ./pseudo/H.pbe-kjpaw_psl.1.0.0.UPF
     MD5 check sum: b3cb3c48ee3b58cc53e4d592112d0ca6
     Pseudo is Projector augmented-wave, Zval =  1.0
     Generated using 'atomic' code by A. Dal Corso  v.7.2
     Shape of augmentation charge: PSQ
     Using radial grid of  929 points,  2 beta functions with:
                l(1) =   0
                l(2) =   0
     Q(r) pseudized with 0 coefficients

     atomic species   valence    mass     pseudopotential
        Mo            14.00    95.95000     Mo( 1.00)
        S              6.00    32.06000     S ( 1.00)
        Pd            18.00   106.42000     Pd( 1.00)
        H              1.00     1.00800     H ( 1.00)

     No symmetry found

   Cartesian axes

     site n.     atom                  positions (alat units)
         1           Mo  tau(   1) = (   0.0000010   0.1443372  -0.7272732  )
         2           Mo  tau(   2) = (   0.1249995   0.0721706  -0.2424038  )
         3           S   tau(   3) = (   0.0000015   0.1443386  -0.3667807  )
         4           S   tau(   4) = (   0.1250010   0.0721682  -0.6030489  )
         5           S   tau(   5) = (   0.1250010   0.0721683  -0.8514963  )
         6           S   tau(   6) = (   0.0000015   0.1443389  -0.1180260  )
         7           Mo  tau(   7) = (   0.0000007   0.1443589   0.2424205  )
         8           Mo  tau(   8) = (   0.1250041   0.0720322   0.7266168  )
         9           S   tau(   9) = (   0.0000742   0.1444871   0.6020949  )
        10           S   tau(  10) = (   0.1250024   0.0721701   0.3667478  )
        11           S   tau(  11) = (   0.1250035   0.0721876   0.1180348  )
        12           S   tau(  12) = (  -0.0004118   0.1430864   0.8514340  )
        13           Mo  tau(  13) = (  -0.1249989   0.3608437  -0.7272732  )
        14           Mo  tau(  14) = (   0.0000030   0.2886752  -0.2424042  )
        15           S   tau(  15) = (  -0.1249977   0.3608450  -0.3667802  )
        16           S   tau(  16) = (   0.0000012   0.2886747  -0.6030489  )
        17           S   tau(  17) = (   0.0000012   0.2886748  -0.8514963  )
        18           S   tau(  18) = (  -0.1249977   0.3608454  -0.1180274  )
        19           Mo  tau(  19) = (  -0.1249729   0.3608584   0.2424608  )
        20           Mo  tau(  20) = (  -0.0007193   0.2876626   0.7275440  )
        21           S   tau(  21) = (  -0.1251115   0.3607789   0.6027257  )
        22           S   tau(  22) = (   0.0000621   0.2887099   0.3668377  )
        23           S   tau(  23) = (  -0.0000096   0.2886902   0.1180527  )
        24           S   tau(  24) = (  -0.1254673   0.3605734   0.8517408  )
        25           Mo  tau(  25) = (  -0.2499987   0.5773502  -0.7272732  )
        26           Mo  tau(  26) = (  -0.1249977   0.5051839  -0.2424055  )
        27           S   tau(  27) = (  -0.2499981   0.5773518  -0.3667809  )
        28           S   tau(  28) = (  -0.1249986   0.5051812  -0.6030489  )
        29           S   tau(  29) = (  -0.1249986   0.5051813  -0.8514963  )
        30           S   tau(  30) = (  -0.2499979   0.5773512  -0.1180266  )
        31           Mo  tau(  31) = (  -0.2499795   0.5773389   0.2424205  )
        32           Mo  tau(  32) = (  -0.1262356   0.5050639   0.7275441  )
        33           S   tau(  33) = (  -0.2498323   0.5773390   0.6020948  )
        34           S   tau(  34) = (  -0.1249376   0.5052159   0.3668377  )
        35           S   tau(  35) = (  -0.1249905   0.5051638   0.1180531  )
        36           S   tau(  36) = (  -0.2512883   0.5776183   0.8514340  )
        37           Mo  tau(  37) = (  -0.3749985   0.7938567  -0.7272732  )
        38           Mo  tau(  38) = (  -0.2500001   0.7216874  -0.2424031  )
        39           S   tau(  39) = (  -0.3749980   0.7938584  -0.3667800  )
        40           S   tau(  40) = (  -0.2499984   0.7216877  -0.6030489  )
        41           S   tau(  41) = (  -0.2499984   0.7216878  -0.8514963  )
        42           S   tau(  42) = (  -0.3749982   0.7938585  -0.1180264  )
        43           Mo  tau(  43) = (  -0.3749962   0.7938568   0.2423838  )
        44           Mo  tau(  44) = (  -0.2501148   0.7217588   0.7266170  )
        45           S   tau(  45) = (  -0.3749945   0.7938590   0.6021274  )
        46           S   tau(  46) = (  -0.2499958   0.7216877   0.3667488  )
        47           S   tau(  47) = (  -0.2499810   0.7216794   0.1180323  )
        48           S   tau(  48) = (  -0.3749953   0.7938585   0.8511588  )
        49           Mo  tau(  49) = (   0.2500010   0.1443372  -0.7272732  )
        50           Mo  tau(  50) = (   0.3750034   0.0721723  -0.2424032  )
        51           S   tau(  51) = (   0.2500017   0.1443391  -0.3667788  )
        52           S   tau(  52) = (   0.3750010   0.0721682  -0.6030489  )
        53           S   tau(  53) = (   0.3750010   0.0721683  -0.8514963  )
        54           S   tau(  54) = (   0.2500016   0.1443391  -0.1180271  )
        55           Mo  tau(  55) = (   0.2500054   0.1443594   0.2424211  )
        56           Mo  tau(  56) = (   0.3749279   0.0721263   0.7263991  )
        57           S   tau(  57) = (   0.2499344   0.1444864   0.6020948  )
        58           S   tau(  58) = (   0.3750316   0.0721860   0.3667597  )
        59           S   tau(  59) = (   0.3749924   0.0721644   0.1180346  )
        60           S   tau(  60) = (   0.2504199   0.1430865   0.8514340  )
[...]
       180           S   tau( 180) = (   0.5012979   0.5776190   0.8514332  )
       181           Mo  tau( 181) = (   0.3750016   0.7938567  -0.7272732  )
       182           Mo  tau( 182) = (   0.5000025   0.7216901  -0.2424039  )
       183           S   tau( 183) = (   0.3750019   0.7938578  -0.3667793  )
       184           S   tau( 184) = (   0.5000016   0.7216877  -0.6030489  )
       185           S   tau( 185) = (   0.5000016   0.7216878  -0.8514963  )
       186           S   tau( 186) = (   0.3750020   0.7938579  -0.1180272  )
       187           Mo  tau( 187) = (   0.3749848   0.7938487   0.2424206  )
       188           Mo  tau( 188) = (   0.5001249   0.7217591   0.7266160  )
       189           S   tau( 189) = (   0.3749125   0.7937251   0.6020942  )
       190           S   tau( 190) = (   0.5000021   0.7216868   0.3667472  )
       191           S   tau( 191) = (   0.4999874   0.7216780   0.1180346  )
       192           S   tau( 192) = (   0.3758826   0.7948451   0.8514332  )
       193           Pd  tau( 193) = (   0.1250063   0.5051842   0.9601361  )
       194           H   tau( 194) = (   0.1250302   0.5066260   1.0870325  )

     DFT-D3 Dispersion Correction (3-body terms):
       Reference C6 values for interpolation:

         atom   Coordination number   C6
         H          0.912             6.05
         H          0.000            15.18
         S          0.000           268.01
[...]
     atom   15 type  2   force =     0.00000000    0.00000000    0.00000000
     atom   16 type  2   force =     0.00000000    0.00000000    0.00000000
     atom   17 type  2   force =     0.00000000    0.00000000    0.00000000
     atom   18 type  2   force =     0.00000000    0.00000000    0.00000000
     atom   19 type  1   force =     0.00000903    0.00000254    0.00003382
     atom   20 type  1   force =     0.00003890    0.00000892   -0.00006321
     atom   21 type  2   force =     0.00001417    0.00000780   -0.00001401
     atom   22 type  2   force =    -0.00000037    0.00000260    0.00001237
     atom   23 type  2   force =     0.00000175    0.00000183    0.00000640
     atom   24 type  2   force =     0.00000892    0.00000527   -0.00002405
     atom   25 type  1   force =     0.00000000    0.00000000    0.00000000
     atom   26 type  1   force =     0.00000000    0.00000000    0.00000000
     atom   27 type  2   force =     0.00000000    0.00000000    0.00000000
     atom   28 type  2   force =     0.00000000    0.00000000    0.00000000
     atom   29 type  2   force =     0.00000000    0.00000000    0.00000000
     atom   30 type  2   force =     0.00000000    0.00000000    0.00000000
     atom   31 type  1   force =     0.00000370   -0.00000390    0.00003601
     atom   32 type  1   force =     0.00002590    0.00002788   -0.00006167
     atom   33 type  2   force =     0.00002025   -0.00000099   -0.00001405
     atom   34 type  2   force =     0.00000184   -0.00000206    0.00001221
     atom   35 type  2   force =     0.00000239    0.00000025    0.00000618
     atom   36 type  2   force =     0.00001681   -0.00000471   -0.00002563
     atom   37 type  1   force =     0.00000000    0.00000000    0.00000000
     atom   38 type  1   force =     0.00000000    0.00000000    0.00000000
     atom   39 type  2   force =     0.00000000    0.00000000    0.00000000
     atom   40 type  2   force =     0.00000000    0.00000000    0.00000000
     atom   41 type  2   force =     0.00000000    0.00000000    0.00000000
     atom   42 type  2   force =     0.00000000    0.00000000    0.00000000
     atom   43 type  1   force =    -0.00000218   -0.00000008    0.00002687
     atom   44 type  1   force =     0.00003618   -0.00002240   -0.00006444
     atom   45 type  2   force =    -0.00000050   -0.00000031   -0.00002247
     atom   46 type  2   force =     0.00000299   -0.00000174    0.00000681
     atom   47 type  2   force =     0.00000132   -0.00000048    0.00000258
     atom   48 type  2   force =    -0.00000033    0.00000018   -0.00001757
     atom   49 type  1   force =     0.00000000    0.00000000    0.00000000
     atom   50 type  1   force =     0.00000000    0.00000000    0.00000000
     atom   51 type  2   force =     0.00000000    0.00000000    0.00000000
     atom   52 type  2   force =     0.00000000    0.00000000    0.00000000
     atom   53 type  2   force =     0.00000000    0.00000000    0.00000000
     atom   54 type  2   force =     0.00000000    0.00000000    0.00000000
     atom   55 type  1   force =    -0.00000077    0.00000588    0.00003509
     atom   56 type  1   force =     0.00004120    0.00002585   -0.00004654
     atom   57 type  2   force =    -0.00000979    0.00001873   -0.00001434
     atom   58 type  2   force =     0.00000034    0.00000056    0.00000415
     atom   59 type  2   force =    -0.00000009    0.00000012    0.00000242
     atom   60 type  2   force =    -0.00000521    0.00001707   -0.00002477
[...]
     atom  180 type  2   force =    -0.00001829   -0.00000491   -0.00002634
     atom  181 type  1   force =     0.00000000    0.00000000    0.00000000
     atom  182 type  1   force =     0.00000000    0.00000000    0.00000000
     atom  183 type  2   force =     0.00000000    0.00000000    0.00000000
     atom  184 type  2   force =     0.00000000    0.00000000    0.00000000
     atom  185 type  2   force =     0.00000000    0.00000000    0.00000000
     atom  186 type  2   force =     0.00000000    0.00000000    0.00000000
     atom  187 type  1   force =    -0.00000463   -0.00000212    0.00003574
     atom  188 type  1   force =    -0.00003868   -0.00002343   -0.00006458
     atom  189 type  2   force =    -0.00001073   -0.00001785   -0.00001412
     atom  190 type  2   force =    -0.00000327   -0.00000200    0.00000683
     atom  191 type  2   force =    -0.00000157   -0.00000077    0.00000230
     atom  192 type  2   force =    -0.00001241   -0.00001326   -0.00002599
     atom  193 type  3   force =     0.00000083    0.00000303    0.00006359
     atom  194 type  4   force =     0.00000001    0.00000004   -0.00000027

     DFT-D3 dispersion contribution to forces:
     atom    1 type  1   force =     0.00000001    0.00000004    0.00255973
     atom    2 type  1   force =     0.00000000    0.00000005    0.00001499
     atom    3 type  2   force =     0.00000002   -0.00000001   -0.00003307
     atom    4 type  2   force =    -0.00000001   -0.00000001    0.00017153
     atom    5 type  2   force =    -0.00000000   -0.00000002    0.00441514
     atom    6 type  2   force =     0.00000010    0.00000010    0.00009772
     atom    7 type  1   force =    -0.00000353   -0.00000838   -0.00000520
     atom    8 type  1   force =     0.00000000    0.00008067   -0.00246226
     atom    9 type  2   force =     0.00000701   -0.00000566   -0.00012719
     atom   10 type  2   force =    -0.00000000   -0.00001777    0.00003707
     atom   11 type  2   force =     0.00000000   -0.00000033   -0.00009530
     atom   12 type  2   force =     0.00009619    0.00027538   -0.00431101
     atom   13 type  1   force =     0.00000003    0.00000002    0.00255978
     atom   14 type  1   force =     0.00000013    0.00000016    0.00001516
     atom   15 type  2   force =     0.00000003    0.00000001   -0.00003304
     atom   16 type  2   force =     0.00000001    0.00000001    0.00017155
     atom   17 type  2   force =    -0.00000001    0.00000002    0.00441503
     atom   18 type  2   force =     0.00000037    0.00000019    0.00009781
     atom   19 type  1   force =    -0.00001142   -0.00000660   -0.00001586
     atom   20 type  1   force =     0.00016822    0.00029736   -0.00215033
     atom   21 type  2   force =     0.00002527    0.00001459   -0.00008384
     atom   22 type  2   force =    -0.00000592   -0.00001913    0.00003384
     atom   23 type  2   force =     0.00000053   -0.00000034   -0.00009833
     atom   24 type  2   force =     0.00049533    0.00028630   -0.00415397
     atom   25 type  1   force =     0.00000004   -0.00000002    0.00255973
     atom   26 type  1   force =     0.00000022    0.00000002    0.00001513
     atom   27 type  2   force =     0.00000001    0.00000001   -0.00003309
     atom   28 type  2   force =     0.00000001   -0.00000000    0.00017155
     atom   29 type  2   force =     0.00000002   -0.00000002    0.00441503
     atom   30 type  2   force =     0.00000014    0.00000004    0.00009773
     atom   31 type  1   force =    -0.00000907    0.00000111   -0.00000519
     atom   32 type  1   force =     0.00034151   -0.00000283   -0.00214988
     atom   33 type  2   force =    -0.00000135    0.00000881   -0.00012723
     atom   34 type  2   force =    -0.00001956    0.00000437    0.00003382
     atom   35 type  2   force =    -0.00000003    0.00000062   -0.00009832
     atom   36 type  2   force =     0.00028758   -0.00005444   -0.00431066
     atom   37 type  1   force =    -0.00000000   -0.00000000    0.00255977
     atom   38 type  1   force =     0.00000003    0.00000001    0.00001500
     atom   39 type  2   force =     0.00000001    0.00000002   -0.00003305
     atom   40 type  2   force =    -0.00000001    0.00000000    0.00017152
     atom   41 type  2   force =    -0.00000001    0.00000001    0.00441514
     atom   42 type  2   force =     0.00000001    0.00000002    0.00009774
     atom   43 type  1   force =     0.00000000   -0.00000001    0.00000712
     atom   44 type  1   force =     0.00007019   -0.00004043   -0.00246211
     atom   45 type  2   force =    -0.00000000    0.00000006   -0.00015176
     atom   46 type  2   force =    -0.00001549    0.00000890    0.00003709
     atom   47 type  2   force =    -0.00000029    0.00000018   -0.00009529
     atom   48 type  2   force =     0.00000000    0.00000009   -0.00441202
     atom   49 type  1   force =    -0.00000001    0.00000005    0.00255973
     atom   50 type  1   force =    -0.00000003   -0.00000000    0.00001495
     atom   51 type  2   force =    -0.00000002   -0.00000002   -0.00003307
     atom   52 type  2   force =     0.00000001    0.00000001    0.00017155
     atom   53 type  2   force =     0.00000000    0.00000000    0.00441513
     atom   54 type  2   force =    -0.00000009    0.00000009    0.00009772
     atom   55 type  1   force =     0.00000353   -0.00000838   -0.00000521
     atom   56 type  1   force =    -0.00001374   -0.00000788   -0.00248000
     atom   57 type  2   force =    -0.00000701   -0.00000566   -0.00012719
     atom   58 type  2   force =    -0.00000127   -0.00000066    0.00004191
     atom   59 type  2   force =    -0.00000058   -0.00000033   -0.00009495
     atom   60 type  2   force =    -0.00009619    0.00027539   -0.00431101
[...]
     atom  180 type  2   force =    -0.00028761   -0.00005445   -0.00431065
     atom  181 type  1   force =    -0.00000004   -0.00000003    0.00255974
     atom  182 type  1   force =    -0.00000008   -0.00000002    0.00001498
     atom  183 type  2   force =    -0.00000002   -0.00000002   -0.00003306
     atom  184 type  2   force =     0.00000000    0.00000001    0.00017154
     atom  185 type  2   force =     0.00000001    0.00000001    0.00441514
     atom  186 type  2   force =    -0.00000007   -0.00000014    0.00009770
     atom  187 type  1   force =     0.00000553    0.00000728   -0.00000530
     atom  188 type  1   force =    -0.00007020   -0.00004044   -0.00246210
     atom  189 type  2   force =     0.00000853   -0.00000325   -0.00012723
     atom  190 type  2   force =     0.00001549    0.00000891    0.00003709
     atom  191 type  2   force =     0.00000028    0.00000017   -0.00009532
     atom  192 type  2   force =    -0.00019146   -0.00022210   -0.00431045
     atom  193 type  3   force =    -0.00000002   -0.00000086   -0.00638469
     atom  194 type  4   force =     0.00000001    0.00000032   -0.00079269

     Total force =     0.001705     Total SCF correction =     0.000357
     SCF correction compared to forces is large: reduce conv_thr to get better values
     Energy error            =      7.3E-06 Ry
     Gradient error          =      6.6E-04 Ry/Bohr

     bfgs converged in  10 scf cycles and   9 bfgs steps
     (criteria: energy <  1.0E-04 Ry, force <  1.0E-03 Ry/Bohr)

     End of BFGS Geometry Optimization

     Final energy             =  -32306.7855569075 Ry

     File ./outdir/pwscf.bfgs deleted, as requested
Begin final coordinates

ATOMIC_POSITIONS (angstrom)
Mo            0.0000119917        1.8193638619       -9.1672481230    0   0   0
Mo            1.5756136568        0.9097075315       -3.0554901653    0   0   0
S             0.0000188998        1.8193822938       -4.6232556019    0   0   0
S             1.5756321638        0.9096773839       -7.6014065489    0   0   0
S             1.5756326175        0.9096785128      -10.7330757790    0   0   0
S             0.0000189190        1.8193860094       -1.4877129945    0   0   0
Mo            0.0000467649        1.8195140582        3.0556061681
Mo            1.5756731884        0.9073893383        9.1568849380
S            -0.0001786574        1.8207243862        7.5894600684
S             1.5756587882        0.9098732468        4.6229913560
S             1.5756546786        0.9097357951        1.4878781026
S            -0.0028539038        1.8019549617       10.7327258438
Mo           -1.5756053507        4.5484193819       -9.1672481230    0   0   0
Mo            0.0000378379        3.6387394919       -3.0554952701    0   0   0
S            -1.5755913433        4.5484363582       -4.6232494962    0   0   0
S             0.0000148214        3.6387329039       -7.6014065489    0   0   0
S             0.0000152751        3.6387340328      -10.7330757790    0   0   0
S            -1.5755906502        4.5484413613       -1.4877305502    0   0   0
Mo           -1.5753210536        4.5485807410        3.0561199272
Mo           -0.0068571526        3.6262145614        9.1690197055
S            -1.5750218430        4.5487560546        7.5970937369
S             0.0006955168        3.6390348190        4.6237746550
S            -0.0001258401        3.6388360376        1.4879370371
S            -1.5823498445        4.5444815865       10.7345227576
Mo           -3.1512226931        7.2774749019       -9.1672481230    0   0   0
Mo           -1.5755910988        6.3678216792       -3.0555115988    0   0   0
S            -3.1512162438        7.2774954350       -4.6232578178    0   0   0
S            -1.5756025210        6.3677884239       -7.6014065489    0   0   0
S            -1.5756020673        6.3677895528      -10.7330757790    0   0   0
S            -3.1512127704        7.2774877076       -1.4877200710    0   0   0
Mo           -3.1510704919        7.2774257553        3.0556038415
Mo           -1.5900692417        6.3679574230        9.1689383231
S            -3.1502003735        7.2766681171        7.5894654912
S            -1.5750006833        6.3682230024        4.6237807830
S            -1.5755802437        6.3676115909        1.4879335270
S            -3.1677721548        7.2837298547       10.7327638291
Mo           -4.7268400355       10.0065304219       -9.1672481230    0   0   0
Mo           -3.1512405618        9.0968403586       -3.0554816746    0   0   0
S            -4.7268341792       10.0065523623       -4.6232463762    0   0   0
S            -3.1512198634        9.0968439439       -7.6014065489    0   0   0
S            -3.1512194097        9.0968450728      -10.7330757790    0   0   0
S            -4.7268370797       10.0065537885       -1.4877176751    0   0   0
Mo           -4.7268160706       10.0065376492        3.0556200171
Mo           -3.1532009479        9.0980275060        9.1569439057
S            -4.7267941714       10.0065622699        7.5867799623
S            -3.1510263178        9.0967644063        4.6229915582
S            -3.1511526785        9.0968313416        1.4878751040
S            -4.7267958943       10.0066053149       10.7264762568
Mo            3.1512517547        1.8193638619       -9.1672481230    0   0   0
Mo            4.7269020221        0.9097289540       -3.0554823951    0   0   0
S             3.1512612351        1.8193882564       -4.6232320683    0   0   0
S             4.7268719268        0.9096773839       -7.6014065489    0   0   0
S             4.7268723805        0.9096785128      -10.7330757790    0   0   0
S             3.1512592485        1.8193890201       -1.4877261251    0   0   0
Mo            3.1512684779        1.8195128752        3.0556024401
Mo            4.7261525011        0.9092600397        9.1569015420
S             3.1515268323        1.8207255699        7.5894626920
S             4.7269424851        0.9097102850        4.6230814233
S             4.7269223621        0.9097046534        1.4878602631
S             3.1541994138        1.8019541348       10.7327300494
[...]
S             6.3191337138        7.2837310868       10.7327640022
Mo            4.7268792535       10.0065304219       -9.1672481230    0   0   0
Mo            6.3025111524        9.0968738021       -3.0554915260    0   0   0
S             4.7268840634       10.0065452125       -4.6232380477    0   0   0
S             6.3024994256        9.0968439439       -7.6014065489    0   0   0
S             6.3024998793        9.0968450728      -10.7330757790    0   0   0
S             4.7268847312       10.0065459141       -1.4877283294    0   0   0
Mo            4.7267923214       10.0064634748        3.0556026794
Mo            6.3045672117        9.0980272191        9.1569414466
S             4.7255989770       10.0060416329        7.5895730132
S             6.3023627180        9.0967628972        4.6229910655
S             6.3024855974        9.0968325547        1.4878746202
S             4.7406735065       10.0178171976       10.7328182218
Pd            1.5757220265        6.3696329888       12.1580619898
H             1.5760036638        6.3861991306       13.7533040351
End final coordinates

     Writing all to output data dir ./outdir/pwscf.save/

     General routines

     Parallel routines

   This run was terminated on:   5:30:19  30Aug2023

   JOB DONE.
Application 11110874 resources: utime ~3300273s, stime ~35067s, Rss ~3496160, inblocks ~0, outblocks ~53315192