     Program PWSCF v.7.3 starts on 23Feb2024 at 16:14:22

     Waiting for input...
     Reading input from standard input
Warning: card &CELL ignored
Warning: card / ignored

     Current dimensions of program PWSCF are:
     Max number of different atomic species (ntypx) = 10
     Max number of k-points (npk) =  40000
     Max angular momentum in pseudopotentials (lmaxx) =  4
     file Mo.pbe-spn-kjpaw_psl.1.0.0.UPF: wavefunction(s)  4S 4D renormalized
     file S.pbe-n-kjpaw_psl.1.0.0.UPF: wavefunction(s)  3S 3P renormalized
     file Pt.pbe-spfn-kjpaw_psl.1.0.0.UPF: wavefunction(s)  5P 4F renormalized

     R & G space division:  proc/nbgrp/npool/nimage =      36
     Subspace diagonalization in iterative solution of the eigenvalue problem:
     one sub-group per band group will be used

     Using Slab Decomposition

     bravais-lattice index     =            0
     lattice parameter (alat)  =      23.8395  a.u.
     unit-cell volume          =   28182.8498 (a.u.)^3
     number of atoms/cell      =          148
     number of atomic types    =            3
     number of electrons       =      1376.00
     number of Kohn-Sham states=          826
     kinetic-energy cutoff     =      77.0000  Ry
     charge density cutoff     =     539.0000  Ry
     scf convergence threshold =      1.0E-06
     mixing beta               =       0.2000
     number of iterations used =            8  plain     mixing
     energy convergence thresh.=      1.0E-04
     force convergence thresh. =      1.0E-03
     Exchange-correlation= SLA  PW   PBX  PBC
                           (   1   4   3   4   0   0   0)
     nstep                     =         1000

     Effective Screening Medium Method
     Boundary Conditions: Vacuum-Slab-Vacuum
     total charge in unit cell        =   0.0000
     grid points for fit at edges     =        4

     celldm(1)=  23.839504  celldm(2)=   0.000000  celldm(3)=   0.000000
     celldm(4)=   0.000000  celldm(5)=   0.000000  celldm(6)=   0.000000

     crystal axes: (cart. coord. in units of alat)
               a(1) = (   1.000000   0.000000   0.000000 )
               a(2) = (  -0.500001   0.866026   0.000000 )
               a(3) = (   0.000000   0.000000   2.401941 )

     reciprocal axes: (cart. coord. in units 2 pi/alat)
               b(1) = (  1.000000  0.577351  0.000000 )
               b(2) = (  0.000000  1.154700  0.000000 )
               b(3) = (  0.000000  0.000000  0.416330 )

     PseudoPot. # 1 for Mo read from file:
     ./pseudo/Mo.pbe-spn-kjpaw_psl.1.0.0.UPF
     MD5 check sum: 317bf72632116215fd98f72de1686f13
     Pseudo is Projector augmented-wave + core cor, Zval = 14.0
     Generated using 'atomic' code by A. Dal Corso  v.7.2
     Shape of augmentation charge: PSQ
     Using radial grid of 1229 points,  6 beta functions with:
                l(1) =   0
                l(2) =   0
                l(3) =   1
                l(4) =   1
                l(5) =   2
                l(6) =   2
     Q(r) pseudized with 0 coefficients

     PseudoPot. # 2 for S  read from file:
     ./pseudo/S.pbe-n-kjpaw_psl.1.0.0.UPF
     MD5 check sum: 8b7b5302570d38d5e87fed6a1065abda
     Pseudo is Projector augmented-wave + core cor, Zval =  6.0
     Generated using 'atomic' code by A. Dal Corso  v.7.2
     Shape of augmentation charge: PSQ
     Using radial grid of 1151 points,  6 beta functions with:
                l(1) =   0
                l(2) =   0
                l(3) =   1
                l(4) =   1
                l(5) =   2
                l(6) =   2
     Q(r) pseudized with 0 coefficients

     PseudoPot. # 3 for Pt read from file:
     ./pseudo/Pt.pbe-spfn-kjpaw_psl.1.0.0.UPF
     MD5 check sum: 620096ebf4e6ebacc94de60fd67efcb5
     Pseudo is Projector augmented-wave + core cor, Zval = 32.0
     Generated using 'atomic' code by A. Dal Corso  v.7.2
     Shape of augmentation charge: PSQ
     Using radial grid of 1277 points,  8 beta functions with:
                l(1) =   0
                l(2) =   0
                l(3) =   1
                l(4) =   1
                l(5) =   2
                l(6) =   2
                l(7) =   3
                l(8) =   3
     Q(r) pseudized with 0 coefficients

     atomic species   valence    mass     pseudopotential
     Mo               14.00    95.95000     Mo( 1.00)
     S                 6.00    32.06000     S ( 1.00)
     Pt               32.00   195.08400     Pt( 1.00)

     No symmetry found

   Cartesian axes

     site n.     atom                  positions (alat units)
         1        Mo     tau(   1) = (   0.1238817   0.2144060   0.4829644  )
         2        Mo     tau(   2) = (   0.1250004   0.0721694  -0.4825273  )
         3        Mo     tau(   3) = (   0.0000256   0.1442035   0.0000796  )
         4        S      tau(   4) = (   0.0000004   0.0000006  -0.6064556  )
         5        S      tau(   5) = (   0.1250097   0.0720522  -0.1240500  )
         6        S      tau(   6) = (  -0.0004206   0.1433956   0.3580178  )
         7        S      tau(   7) = (   0.0000004   0.0000005  -0.3584711  )
         8        S      tau(   8) = (   0.1250445   0.0720096   0.1242925  )
         9        S      tau(   9) = (  -0.0008046   0.1435983   0.6079781  )
        10        Mo     tau(  10) = (  -0.0013875   0.4315866   0.4833102  )
        11        Mo     tau(  11) = (   0.0000001   0.2886759  -0.4825273  )
        12        Mo     tau(  12) = (  -0.1250077   0.3607047   0.0000594  )
        13        S      tau(  13) = (  -0.1249999   0.2165071  -0.6064556  )
        14        S      tau(  14) = (   0.0000390   0.2885691  -0.1239926  )
        15        S      tau(  15) = (  -0.1255996   0.3596930   0.3583770  )
        16        S      tau(  16) = (  -0.1249998   0.2165070  -0.3584711  )
        17        S      tau(  17) = (  -0.0000192   0.2885208   0.1243251  )
        18        S      tau(  18) = (  -0.1263320   0.3593409   0.6072598  )
        19        Mo     tau(  19) = (  -0.1262636   0.6482146   0.4823223  )
        20        Mo     tau(  20) = (  -0.1250002   0.5051824  -0.4825273  )
        21        Mo     tau(  21) = (  -0.2500120   0.5772319  -0.0000175  )
        22        S      tau(  22) = (  -0.2500002   0.4330136  -0.6064556  )
        23        S      tau(  23) = (  -0.1249381   0.5050594  -0.1240340  )
        24        S      tau(  24) = (  -0.2504244   0.5762414   0.3579604  )
        25        S      tau(  25) = (  -0.2500001   0.4330135  -0.3584711  )
        26        S      tau(  26) = (  -0.1251017   0.5050310   0.1242390  )
        27        S      tau(  27) = (  -0.2495840   0.5760644   0.6077972  )
        28        Mo     tau(  28) = (   0.2497023  -0.0010309   0.4823911  )
        29        Mo     tau(  29) = (  -0.2500004   0.7216889  -0.4825273  )
        30        Mo     tau(  30) = (  -0.3749999   0.7937263   0.0000496  )
        31        S      tau(  31) = (  -0.3750004   0.6495201  -0.6064556  )
        32        S      tau(  32) = (  -0.2499875   0.7215946  -0.1240833  )
        33        S      tau(  33) = (  -0.3751537   0.7929010   0.3583254  )
        34        S      tau(  34) = (  -0.3750004   0.6495200  -0.3584711  )
        35        S      tau(  35) = (  -0.2500092   0.7215442   0.1242511  )
        36        S      tau(  36) = (  -0.3747635   0.7931826   0.6069631  )
        37        Mo     tau(  37) = (   0.3754961   0.2141741   0.4831559  )
        38        Mo     tau(  38) = (   0.3750004   0.0721694  -0.4825273  )
        39        Mo     tau(  39) = (   0.2500101   0.1442182   0.0000535  )
        40        S      tau(  40) = (   0.2500004   0.0000006  -0.6064556  )
        41        S      tau(  41) = (   0.3749901   0.0720319  -0.1240803  )
        42        S      tau(  42) = (   0.2497178   0.1431538   0.3583206  )
        43        S      tau(  43) = (   0.2500004   0.0000005  -0.3584711  )
        44        S      tau(  44) = (   0.3750066   0.0720435   0.1242534  )
        45        S      tau(  45) = (   0.2496606   0.1426561   0.6069640  )
        46        Mo     tau(  46) = (   0.2495993   0.4272973   0.4822565  )
        47        Mo     tau(  47) = (   0.2500001   0.2886759  -0.4825273  )
        48        Mo     tau(  48) = (   0.1250102   0.3607283   0.0001586  )
        49        S      tau(  49) = (   0.1250001   0.2165071  -0.6064556  )
        50        S      tau(  50) = (   0.2499701   0.2885883  -0.1240096  )
        51        S      tau(  51) = (   0.1239154   0.3586113   0.3594465  )
        52        S      tau(  52) = (   0.1250002   0.2165070  -0.3584711  )
        53        S      tau(  53) = (   0.2500526   0.2885346   0.1243611  )
        54        S      tau(  54) = (   0.1195196   0.3555405   0.6112564  )
        55        Mo     tau(  55) = (   0.1203417   0.6510154   0.4792411  )
        56        Mo     tau(  56) = (   0.1249998   0.5051824  -0.4825273  )
        57        Mo     tau(  57) = (   0.0000077   0.5772149   0.0001586  )
        58        S      tau(  58) = (  -0.0000002   0.4330136  -0.6064556  )
        59        S      tau(  59) = (   0.1250268   0.5050811  -0.1239043  )
        60        S      tau(  60) = (  -0.0025311   0.5754581   0.3577288  )
[...]
       134        S      tau( 134) = (   0.6250078   0.5050377   0.1242234  )
       135        S      tau( 135) = (   0.5063903   0.5740773   0.6117172  )
       136        Mo     tau( 136) = (   0.0002139   0.0002234   0.4829627  )
       137        Mo     tau( 137) = (   0.4999996   0.7216889  -0.4825273  )
       138        Mo     tau( 138) = (   0.3749992   0.7937267   0.0001537  )
       139        S      tau( 139) = (   0.3749996   0.6495201  -0.6064556  )
       140        S      tau( 140) = (   0.4999598   0.7215890  -0.1240151  )
       141        S      tau( 141) = (   0.3753549   0.7941519   0.3594268  )
       142        S      tau( 142) = (   0.3749996   0.6495200  -0.3584711  )
       143        S      tau( 143) = (   0.5000304   0.7215162   0.1243550  )
       144        S      tau( 144) = (   0.3757998   0.7994070   0.6112412  )
       145        Pt     tau( 145) = (   0.2514151   0.4458369   0.7157491  )
       146        Pt     tau( 146) = (   0.3634811   0.6399696   0.7158407  )
       147        Pt     tau( 147) = (   0.1415423   0.6386756   0.7230340  )
       148        Pt     tau( 148) = (  -0.0014268   0.4316180   0.7301439  )

     DFT-D3 Dispersion Correction (3-body terms):
       Reference C6 values for interpolation:

         atom   Coordination number   C6
         S          0.000           268.01
         S          0.995           261.99
         S          1.990           251.62
         Mo         0.000          1691.79
         Mo         1.942          1004.01
         Mo        11.056           674.22
         Pt         0.000           782.29
         Pt         1.919           692.72
         Pt         6.667           673.75

       Values used:

         atom   Coordination number  R0_AB[au]  C6      C8
         Mo        10.265            3.547    674.22  77634.20
         Mo        10.189            3.547    674.22  77634.20
         Mo        10.201            3.547    674.22  77634.20
[...]
   -40.8016 -40.8016 -40.8008 -40.7995 -40.7899 -40.7888 -40.7834 -40.7833
   -40.7832 -40.7831 -40.7818 -40.7814 -40.7764 -40.7731 -40.7715 -40.7712
   -40.7711 -40.7709 -40.7671 -40.7651 -40.7522 -40.7518 -40.7515 -40.7427
   -40.7352 -40.7351 -40.7223 -40.7171 -40.7127 -40.7117 -40.7050 -40.7044
   -40.6850 -40.6836 -40.6783 -40.6747 -40.6695 -40.6554 -40.6481 -40.6425
   -40.6337 -40.6244 -40.6014 -40.5901 -20.8993 -20.0779 -20.0326 -20.0125
   -19.9650 -19.8644 -19.8466 -19.6561 -19.5958 -19.5826 -19.5362 -19.4412
   -19.4335 -19.2506 -19.1262 -18.9555 -18.9130 -18.9101 -18.8879 -18.8873
   -18.8846 -18.8763 -18.8133 -18.7977 -18.7815 -18.7709 -18.7622 -18.7550
   -18.7461 -18.7140 -18.6873 -18.6418 -18.6400 -18.6216 -18.6093 -18.5950
   -18.5919 -18.5494 -18.5458 -18.5310 -18.4879 -18.4729 -18.4401 -18.4314
   -18.4262 -18.3898 -18.3600 -18.3474 -18.3307 -18.3196 -18.2938 -18.2794
   -18.2776 -18.2774 -18.2772 -18.2761 -18.2582 -18.2478 -18.2243 -18.2155
   -18.2004 -18.1998 -18.1977 -18.1959 -18.1805 -18.1737 -18.1645 -18.1442
   -18.1420 -18.1168 -18.1045 -18.1030 -18.0964 -18.0940 -18.0766 -18.0724
   -18.0463 -18.0369 -18.0305 -18.0140 -18.0139 -18.0138 -17.9937 -17.9793
   -17.9695 -17.9566 -17.9552 -17.9535 -17.9419 -17.9376 -17.9353 -17.9342
   -17.8959 -17.8939 -17.8453 -17.8283 -12.9511 -12.7349 -12.6125 -12.2322
   -12.0016 -11.9393 -11.8645 -11.7931 -11.7525 -11.6355 -11.6297 -11.6249
   -11.6223 -11.6213 -11.6056 -11.5943 -11.5856 -11.5555 -11.5325 -11.5270
   -11.5244 -11.5129 -11.4754 -11.4677 -11.4562 -11.4330 -11.4123 -11.4091
   -11.4069 -11.4069 -11.3623 -11.3608 -11.3396 -11.3188 -11.3050 -11.2968
   -11.2903 -11.2656 -11.2420 -11.2015 -11.1905 -11.1509 -11.1379 -11.1158
   -11.0932 -11.0792 -11.0721 -11.0633 -11.0618 -11.0447 -11.0432 -11.0349
   -11.0093 -10.9900 -10.9817 -10.9810 -10.9798 -10.9772 -10.9768 -10.9617
   -10.9539 -10.9207 -10.9156 -10.9085 -10.9054 -10.8547 -10.8343 -10.8044
   -10.7442 -10.6932 -10.6818 -10.6402 -10.6259 -10.5567 -10.5016 -10.4903
   -10.4149 -10.3972 -10.3390 -10.3031 -10.2894 -10.2693 -10.2576 -10.2455
   -10.2291 -10.1755 -10.1664 -10.1338 -10.1234 -10.1055 -10.0930 -10.0911
   -10.0829 -10.0752 -10.0646 -10.0596 -10.0412 -10.0369 -10.0335  -9.9974
    -9.9810  -9.9790  -9.9491  -9.9050  -9.8969  -9.8834  -9.8795  -9.8646
    -9.8629  -9.8552  -9.8509  -9.8447  -9.8363  -9.8223  -9.8131  -9.7743
    -9.7681  -9.7458  -9.7395  -9.7205  -9.7023  -9.6947  -9.6827  -9.6699
    -9.6446  -9.6293  -9.6085  -9.5793  -9.5733  -9.5586  -9.4931  -9.4728
    -9.4543  -9.4035  -9.3734  -9.3622  -9.3572  -9.3440  -9.3313  -9.3166
    -9.2995  -9.2833  -9.2678  -9.2622  -9.2554  -9.2367  -9.2311  -9.2162
[...]
    -3.7408  -3.7367  -3.7296  -3.7289  -3.7067  -3.6605  -3.6534  -3.6486
    -3.6456  -3.6449  -3.6324  -3.6300  -3.6171  -3.6100  -3.5996  -3.5839
    -3.5543  -3.5449  -3.5256  -3.5132  -3.5003  -3.4969  -3.4962  -3.4733
    -3.4688  -3.4665  -3.4613  -3.4568  -3.4427  -3.4249  -3.4217  -3.4205
    -3.4195  -3.4170  -3.4003  -3.3891  -3.3775  -3.3717  -3.3707  -3.3583
    -3.3471  -3.3428  -3.3382  -3.3297  -3.3221  -3.3055  -3.2827  -3.2749
    -3.2704  -3.2641  -3.2215  -3.2150  -3.2119  -3.1932  -3.1770  -3.1763
    -3.1671  -3.1616  -3.1574  -3.1567  -3.1490  -3.1376  -3.1207  -3.1143
    -3.1081  -3.1032  -3.0957  -3.0917  -3.0851  -3.0715  -3.0664  -3.0567
    -3.0526  -3.0466  -3.0374  -3.0253  -3.0142  -3.0008  -2.9855  -2.9801
    -2.9585  -2.9534  -2.9442  -2.9231  -2.9111  -2.8777  -2.8677  -2.8544
    -2.8303  -2.8094  -2.8053  -2.7987  -2.7899  -2.7780  -2.7586  -2.7234
    -2.7159  -2.6828  -2.6652  -2.6607  -2.6498  -2.6361  -2.6192  -2.5652
    -2.5195  -2.5121  -2.4937  -2.4621  -2.4560  -2.4364  -2.4312  -2.4210
    -2.3894  -2.3252

     the Fermi energy is    -4.6678 ev

!    total energy              =  -30543.83421133 Ry
     total all-electron energy =   -612674.455592 Ry
     estimated scf accuracy    <          7.4E-09 Ry
     smearing contrib. (-TS)   =      -0.00001316 Ry
     internal energy E=F+TS    =  -30543.83419817 Ry

     The total energy is F=E-TS. E is the sum of the following terms:
     one-electron contribution =  572939.69055904 Ry
     hartree contribution      = -286732.88140256 Ry
     xc contribution           =   -1730.60881529 Ry
     ewald contribution        = -297309.58084186 Ry
     DFT-D3 Dispersion         =      -4.11256927 Ry
     one-center paw contrib.   =  -17706.34112822 Ry

     convergence has been achieved in  11 iterations

     negative rho (up, down):  8.844E-04 0.000E+00

     Forces acting on atoms (cartesian axes, Ry/au):

     atom    1 type  1   force =     0.00018684   -0.00035454   -0.00010691
     atom    2 type  1   force =     0.00000342   -0.00000238    0.00189485
     atom    3 type  1   force =     0.00001196   -0.00001465    0.00001464
     atom    4 type  2   force =     0.00000178    0.00000256   -0.00328261
     atom    5 type  2   force =     0.00002288   -0.00003254    0.00002896
     atom    6 type  2   force =    -0.00029574    0.00076084   -0.00010587
     atom    7 type  2   force =     0.00001105   -0.00001016    0.00151928
     atom    8 type  2   force =    -0.00000475   -0.00001628    0.00002499
     atom    9 type  2   force =    -0.00000635    0.00008507    0.00027566
     atom   10 type  1   force =     0.00003971    0.00006877   -0.00072667
     atom   11 type  1   force =     0.00000623   -0.00000097    0.00190233
     atom   12 type  1   force =    -0.00001347   -0.00001635    0.00002007
     atom   13 type  2   force =     0.00000173    0.00000233   -0.00328153
     atom   14 type  2   force =    -0.00000808   -0.00001520   -0.00000576
     atom   15 type  2   force =     0.00035724    0.00023716   -0.00002706
     atom   16 type  2   force =     0.00001247   -0.00000926    0.00152719
     atom   17 type  2   force =     0.00001686    0.00000379    0.00000800
     atom   18 type  2   force =    -0.00033815   -0.00010351   -0.00045617
     atom   19 type  1   force =    -0.00011628    0.00022745   -0.00010888
     atom   20 type  1   force =     0.00000461    0.00000063    0.00190372
     atom   21 type  1   force =    -0.00001037    0.00000472    0.00000106
     atom   22 type  2   force =     0.00000179    0.00000208   -0.00328175
     atom   23 type  2   force =    -0.00000251   -0.00002488   -0.00000838
     atom   24 type  2   force =     0.00035161   -0.00058802   -0.00015225
     atom   25 type  2   force =     0.00000887   -0.00000324    0.00152115
     atom   26 type  2   force =     0.00001967   -0.00000970   -0.00000171
     atom   27 type  2   force =     0.00011597    0.00000588    0.00024846
     atom   28 type  1   force =     0.00007752    0.00006172    0.00019610
     atom   29 type  1   force =     0.00000100    0.00000237    0.00189748
     atom   30 type  1   force =    -0.00000534   -0.00000732   -0.00000568
     atom   31 type  2   force =     0.00000213    0.00000184   -0.00328217
     atom   32 type  2   force =     0.00000381    0.00001361    0.00002944
     atom   33 type  2   force =     0.00015915    0.00013016   -0.00002393
     atom   34 type  2   force =     0.00000305    0.00000007    0.00152308
     atom   35 type  2   force =     0.00000381   -0.00001772    0.00002202
     atom   36 type  2   force =    -0.00020099   -0.00008289   -0.00004909
     atom   37 type  1   force =    -0.00013778   -0.00006290    0.00004675
     atom   38 type  1   force =    -0.00000294   -0.00000336    0.00190265
     atom   39 type  1   force =     0.00000668   -0.00002969    0.00003059
     atom   40 type  2   force =     0.00000191    0.00000233   -0.00328349
     atom   41 type  2   force =     0.00002238   -0.00000382    0.00000584
     atom   42 type  2   force =     0.00022840   -0.00015116   -0.00015687
     atom   43 type  2   force =    -0.00000722   -0.00001113    0.00150850
     atom   44 type  2   force =     0.00000260   -0.00001516    0.00002298
     atom   45 type  2   force =     0.00005603    0.00011142    0.00029777
     atom   46 type  1   force =     0.00023961    0.00019020    0.00011410
     atom   47 type  1   force =    -0.00000014   -0.00000069    0.00190006
     atom   48 type  1   force =     0.00000554   -0.00003264   -0.00000891
     atom   49 type  2   force =     0.00000216    0.00000238   -0.00328203
     atom   50 type  2   force =     0.00000803   -0.00005185    0.00000711
     atom   51 type  2   force =    -0.00052458    0.00051623    0.00061701
     atom   52 type  2   force =     0.00000792   -0.00001354    0.00152800
     atom   53 type  2   force =     0.00001007   -0.00000926    0.00000326
     atom   54 type  2   force =     0.00035296   -0.00006278   -0.00065000
     atom   55 type  1   force =     0.00021117    0.00023936   -0.00023831
     atom   56 type  1   force =     0.00000226   -0.00000310    0.00190098
     atom   57 type  1   force =    -0.00001997    0.00000781   -0.00000318
     atom   58 type  2   force =     0.00000215    0.00000232   -0.00328250
     atom   59 type  2   force =    -0.00004102   -0.00004034   -0.00002626
     atom   60 type  2   force =     0.00007572   -0.00071300    0.00036494
[...]
     atom  134 type  2   force =     0.00002942   -0.00001656   -0.00004530
     atom  135 type  2   force =    -0.00030444    0.00031804   -0.00037627
     atom  136 type  1   force =     0.00008151    0.00031024   -0.00009952
     atom  137 type  1   force =     0.00000286    0.00000114    0.00189965
     atom  138 type  1   force =    -0.00000489    0.00000328    0.00000105
     atom  139 type  2   force =     0.00000199    0.00000222   -0.00328157
     atom  140 type  2   force =     0.00000412   -0.00001018   -0.00002114
     atom  141 type  2   force =     0.00030390    0.00014419   -0.00013106
     atom  142 type  2   force =     0.00000316   -0.00000704    0.00154366
     atom  143 type  2   force =    -0.00001230   -0.00002089   -0.00000907
     atom  144 type  2   force =     0.00009103   -0.00026887   -0.00040260
     atom  145 type  3   force =    -0.00068935   -0.00063535   -0.00082697
     atom  146 type  3   force =    -0.00013171   -0.00005003    0.00033594
     atom  147 type  3   force =    -0.00045002   -0.00073302    0.00031788
     atom  148 type  3   force =    -0.00017796    0.00022718    0.00042048

     Total force =     0.003500     Total SCF correction =     0.000595
     SCF correction compared to forces is large: reduce conv_thr to get better values
     Energy error            =      2.7E-05 Ry
     Gradient error          =      8.3E-04 Ry/Bohr

     bfgs converged in  20 scf cycles and  19 bfgs steps
     (criteria: energy <  1.0E-04 Ry, force <  1.0E-03 Ry/Bohr)

     End of BFGS Geometry Optimization

     Final energy             =  -30543.8342113269 Ry

     File ./outdir/pwscf.bfgs deleted, as requested
Begin final coordinates

ATOMIC_POSITIONS (angstrom)
Mo               1.5740606119        2.6690573159        6.0692354122
Mo               1.5769197498        0.9104407117       -6.0872367793    0   0   0
Mo              -0.0002020167        1.8186288503        0.0012955482
S                0.0000044503        0.0000077495       -7.6506323570    0   0   0
S                1.5771008179        0.9084388760       -1.5637860005
S               -0.0230199093        1.8002273167        4.5130494877
S                0.0000053241        0.0000068460       -4.5222282367    0   0   0
S                1.5765999872        0.9082063599        1.5689812385
S                0.0074020242        1.7894424923        7.6651990739
Mo              -0.0072965420        5.4494732340        6.1310348268
Mo               0.0000011799        3.6417399547       -6.0872367793    0   0   0
Mo              -1.5767980332        4.5500437539        0.0005073580
S               -1.5769141197        2.7313069925       -7.6506323570    0   0   0
S                0.0008088216        3.6396772608       -1.5640075313
S               -1.5642731810        4.5472524141        4.5776997389
S               -1.5769132459        2.7313060890       -4.5222282367    0   0   0
S               -0.0011807324        3.6392312258        1.5691090682
S               -1.6406381637        4.5054405930        7.7750679033
Mo              -1.6207442902        8.2040150796        6.0637584261
Mo              -1.5769173901        6.3730391977       -6.0872367793    0   0   0
Mo              -3.1540917951        7.2811277847        0.0005325549
S               -3.1538326896        5.4626062355       -7.6506323570    0   0   0
S               -1.5763591782        6.3714107963       -1.5644087681
S               -3.1749987931        7.2567515193        4.5121099218
S               -3.1538318159        5.4626053320       -4.5222282367    0   0   0
S               -1.5782791428        6.3698886691        1.5683730553
S               -3.1602884920        7.2891010564        7.6646725192
Mo               3.1524332399       -0.0114608796        6.0570193334
Mo              -3.1538359601        9.1043384407       -6.0872367793    0   0   0
Mo              -4.7308275477       10.0126012414        0.0017565999
S               -4.7307512596        8.1939054785       -7.6506323570    0   0   0
S               -3.1537278409        9.1026859559       -1.5640738397
S               -4.7422034005        9.9958509779        4.5046381391
S               -4.7307503859        8.1939045750       -4.5222282367    0   0   0
S               -3.1539630951        9.1014905143        1.5685577120
S               -4.7242673852       10.0072463557        7.6401384624
Mo               4.7428508739        2.7089213704        6.0888321841
Mo               4.7307503218        0.9104407117       -6.0872367793    0   0   0
Mo               3.1538018793        1.8190562743        0.0019455567
S                3.1538350223        0.0000077495       -7.6506323570    0   0   0
S                4.7299887119        0.9079851955       -1.5645062399
S                3.1655415748        1.8072024434        4.4932274194
S                3.1538358961        0.0000068460       -4.5222282367    0   0   0
S                4.7320884423        0.9089911893        1.5671618883
S                3.1609462007        1.7814145615        7.6384441979
Mo               3.1767213626        5.3904808602        6.0695570877
Mo               3.1538317519        3.6417399547       -6.0872367793    0   0   0
Mo               1.5766290575        4.5501713495        0.0026976238
S                1.5769164523        2.7313069925       -7.6506323570    0   0   0
S                3.1533833747        3.6400416649       -1.5631597002
S                1.5534217264        4.5281520040        4.5509776034
S                1.5769173261        2.7313060890       -4.5222282367    0   0   0
S                3.1538884935        3.6401804063        1.5700551053
S                1.6240446921        4.3891604879        7.6918461265
Mo               1.5340591018        8.2400222933        6.0347166301
Mo               1.5769131819        6.3730391977       -6.0872367793    0   0   0
Mo              -0.0000594213        7.2808784418        0.0024789589
S               -0.0000021176        5.4626062355       -7.6506323570    0   0   0
S                1.5769755503        6.3709162498       -1.5627585089
S               -0.0315200065        7.2513834209        4.5348535450
[...]
S                7.8840879489        6.3701140486        1.5667164425
S                6.3453578409        7.2574470179        7.6974457799
Mo              -0.0031433844       -0.0095591259        6.0844152412
Mo               6.3076557559        9.1043384407       -6.0872367793    0   0   0
Mo               4.7303473637       10.0124375746        0.0011541805
S                4.7307404564        8.1939054785       -7.6506323570    0   0   0
S                6.3076616979        9.1025102256       -1.5641935678
S                4.7266452741       10.0200228442        4.5209723292
S                4.7307413301        8.1939045750       -4.5222282367    0   0   0
S                6.3070113986        9.1014101306        1.5684689734
S                4.7348439199       10.0464155295        7.6950723669
Pt               3.1318798746        5.5658311198        9.0669317999
Pt               4.4790732988        8.0308451476        9.1034635210
Pt               1.6857634785        8.0241379870        9.1574149971
Pt               0.1276745718        5.5487647950        8.9764062651
End final coordinates

     Writing all to output data dir ./outdir/pwscf.save/ :
     XML data file, charge density, pseudopotentials, collected wavefunctions

     General routines

     Parallel routines

   This run was terminated on:  22:22:53  24Feb2024

   JOB DONE.