     Program PWSCF v.7.3 starts on  5Apr2024 at 14:46: 6

     Waiting for input...
     Reading input from standard input
Warning: card &CELL ignored
Warning: card / ignored

     Current dimensions of program PWSCF are:
     Max number of different atomic species (ntypx) = 10
     Max number of k-points (npk) =  40000
     Max angular momentum in pseudopotentials (lmaxx) =  4
     file Mo.pbe-spn-kjpaw_psl.1.0.0.UPF: wavefunction(s)  4S 4D renormalized
     file S.pbe-n-kjpaw_psl.1.0.0.UPF: wavefunction(s)  3S 3P renormalized
     file Pt.pbe-spfn-kjpaw_psl.1.0.0.UPF: wavefunction(s)  5P 4F renormalized
     file Pd.pbe-spn-kjpaw_psl.1.0.0.UPF: wavefunction(s)  4S 5S 4D renormalized

     R & G space division:  proc/nbgrp/npool/nimage =      36
     Subspace diagonalization in iterative solution of the eigenvalue problem:
     one sub-group per band group will be used

     Using Slab Decomposition

     bravais-lattice index     =            0
     lattice parameter (alat)  =      23.8199  a.u.
     unit-cell volume          =   33861.0370 (a.u.)^3
     number of atoms/cell      =          195
     number of atomic types    =            4
     number of electrons       =      1746.00
     number of Kohn-Sham states=         1048
     kinetic-energy cutoff     =      77.0000  Ry
     charge density cutoff     =     539.0000  Ry
     scf convergence threshold =      1.0E-06
     mixing beta               =       0.2000
     number of iterations used =            8  plain     mixing
     energy convergence thresh.=      1.0E-04
     force convergence thresh. =      1.0E-03
     Exchange-correlation= SLA  PW   PBX  PBC
                           (   1   4   3   4   0   0   0)
     nstep                     =         1000

     Effective Screening Medium Method
     Boundary Conditions: Vacuum-Slab-Vacuum
     total charge in unit cell        =   0.0000
     grid points for fit at edges     =        4

     celldm(1)=  23.819920  celldm(2)=   0.000000  celldm(3)=   0.000000
     celldm(4)=   0.000000  celldm(5)=   0.000000  celldm(6)=   0.000000

     crystal axes: (cart. coord. in units of alat)
               a(1) = (   1.000000   0.000000   0.000000 )
               a(2) = (  -0.499999   0.866026   0.000000 )
               a(3) = (   0.000000   0.000000   2.893000 )

     reciprocal axes: (cart. coord. in units 2 pi/alat)
               b(1) = (  1.000000  0.577349  0.000000 )
               b(2) = (  0.000000  1.154700  0.000000 )
               b(3) = (  0.000000  0.000000  0.345662 )

     PseudoPot. # 1 for Mo read from file:
     ./pseudo/Mo.pbe-spn-kjpaw_psl.1.0.0.UPF
     MD5 check sum: 317bf72632116215fd98f72de1686f13
     Pseudo is Projector augmented-wave + core cor, Zval = 14.0
     Generated using 'atomic' code by A. Dal Corso  v.7.2
     Shape of augmentation charge: PSQ
     Using radial grid of 1229 points,  6 beta functions with:
                l(1) =   0
                l(2) =   0
                l(3) =   1
                l(4) =   1
                l(5) =   2
                l(6) =   2
     Q(r) pseudized with 0 coefficients

     PseudoPot. # 2 for S  read from file:
     ./pseudo/S.pbe-n-kjpaw_psl.1.0.0.UPF
     MD5 check sum: 8b7b5302570d38d5e87fed6a1065abda
     Pseudo is Projector augmented-wave + core cor, Zval =  6.0
     Generated using 'atomic' code by A. Dal Corso  v.7.2
     Shape of augmentation charge: PSQ
     Using radial grid of 1151 points,  6 beta functions with:
                l(1) =   0
                l(2) =   0
                l(3) =   1
                l(4) =   1
                l(5) =   2
                l(6) =   2
     Q(r) pseudized with 0 coefficients

     PseudoPot. # 3 for Pt read from file:
     ./pseudo/Pt.pbe-spfn-kjpaw_psl.1.0.0.UPF
     MD5 check sum: 620096ebf4e6ebacc94de60fd67efcb5
     Pseudo is Projector augmented-wave + core cor, Zval = 32.0
     Generated using 'atomic' code by A. Dal Corso  v.7.2
     Shape of augmentation charge: PSQ
     Using radial grid of 1277 points,  8 beta functions with:
                l(1) =   0
                l(2) =   0
                l(3) =   1
                l(4) =   1
                l(5) =   2
                l(6) =   2
                l(7) =   3
                l(8) =   3
     Q(r) pseudized with 0 coefficients

     PseudoPot. # 4 for Pd read from file:
     ./pseudo/Pd.pbe-spn-kjpaw_psl.1.0.0.UPF
     MD5 check sum: a60571a671f2502b8a6a4569d20a6edb
     Pseudo is Projector augmented-wave + core cor, Zval = 18.0
     Generated using 'atomic' code by A. Dal Corso  v.7.2
     Shape of augmentation charge: PSQ
     Using radial grid of 1235 points,  6 beta functions with:
                l(1) =   0
                l(2) =   0
                l(3) =   1
                l(4) =   1
                l(5) =   2
                l(6) =   2
     Q(r) pseudized with 0 coefficients

     atomic species   valence    mass     pseudopotential
     Mo               14.00    95.95000     Mo( 1.00)
     S                 6.00    32.06000     S ( 1.00)
     Pt               32.00   195.08400     Pt( 1.00)
     Pd               18.00   106.42000     Pd( 1.00)

     No symmetry found

   Cartesian axes

     site n.     atom                  positions (alat units)
         1        Mo     tau(   1) = (   0.0000010   0.1443372  -0.7272732  )
         2        Mo     tau(   2) = (   0.1249995   0.0721706  -0.2424038  )
         3        S      tau(   3) = (   0.0000015   0.1443386  -0.3667807  )
         4        S      tau(   4) = (   0.1250010   0.0721682  -0.6030489  )
         5        S      tau(   5) = (   0.1250010   0.0721683  -0.8514963  )
         6        S      tau(   6) = (   0.0000015   0.1443389  -0.1180260  )
         7        Mo     tau(   7) = (   0.0000165   0.1443639   0.2424458  )
         8        Mo     tau(   8) = (   0.1250235   0.0717246   0.7263406  )
         9        S      tau(   9) = (   0.0005369   0.1448386   0.6015218  )
        10        S      tau(  10) = (   0.1249954   0.0721618   0.3668135  )
        11        S      tau(  11) = (   0.1250195   0.0721779   0.1180823  )
        12        S      tau(  12) = (  -0.0003270   0.1431025   0.8512079  )
        13        Mo     tau(  13) = (  -0.1249989   0.3608437  -0.7272732  )
        14        Mo     tau(  14) = (   0.0000030   0.2886752  -0.2424042  )
        15        S      tau(  15) = (  -0.1249977   0.3608450  -0.3667802  )
        16        S      tau(  16) = (   0.0000012   0.2886747  -0.6030489  )
        17        S      tau(  17) = (   0.0000012   0.2886748  -0.8514963  )
        18        S      tau(  18) = (  -0.1249977   0.3608454  -0.1180274  )
        19        Mo     tau(  19) = (  -0.1249838   0.3608611   0.2424564  )
        20        Mo     tau(  20) = (  -0.0010112   0.2875499   0.7275042  )
        21        S      tau(  21) = (  -0.1249589   0.3614723   0.6028911  )
        22        S      tau(  22) = (   0.0000229   0.2887164   0.3668462  )
        23        S      tau(  23) = (   0.0000319   0.2887039   0.1180849  )
        24        S      tau(  24) = (  -0.1254179   0.3601432   0.8519775  )
        25        Mo     tau(  25) = (  -0.2499987   0.5773502  -0.7272732  )
        26        Mo     tau(  26) = (  -0.1249977   0.5051839  -0.2424055  )
        27        S      tau(  27) = (  -0.2499981   0.5773518  -0.3667809  )
        28        S      tau(  28) = (  -0.1249986   0.5051812  -0.6030489  )
        29        S      tau(  29) = (  -0.1249986   0.5051813  -0.8514963  )
        30        S      tau(  30) = (  -0.2499979   0.5773512  -0.1180266  )
        31        Mo     tau(  31) = (  -0.2499892   0.5773423   0.2424725  )
        32        Mo     tau(  32) = (  -0.1256606   0.5052028   0.7286154  )
        33        S      tau(  33) = (  -0.2498226   0.5768374   0.6031862  )
        34        S      tau(  34) = (  -0.1249521   0.5051863   0.3668519  )
        35        S      tau(  35) = (  -0.1249975   0.5051799   0.1180722  )
        36        S      tau(  36) = (  -0.2499767   0.5778459   0.8528940  )
        37        Mo     tau(  37) = (  -0.3749985   0.7938567  -0.7272732  )
        38        Mo     tau(  38) = (  -0.2500001   0.7216874  -0.2424031  )
        39        S      tau(  39) = (  -0.3749980   0.7938584  -0.3667800  )
        40        S      tau(  40) = (  -0.2499984   0.7216877  -0.6030489  )
        41        S      tau(  41) = (  -0.2499984   0.7216878  -0.8514963  )
        42        S      tau(  42) = (  -0.3749982   0.7938585  -0.1180264  )
        43        Mo     tau(  43) = (  -0.3749918   0.7938447   0.2424454  )
        44        Mo     tau(  44) = (  -0.2499337   0.7214685   0.7273252  )
        45        S      tau(  45) = (  -0.3749119   0.7930997   0.6024017  )
        46        S      tau(  46) = (  -0.2499835   0.7216794   0.3668152  )
        47        S      tau(  47) = (  -0.2499982   0.7216718   0.1180690  )
        48        S      tau(  48) = (  -0.3745581   0.7945239   0.8516564  )
        49        Mo     tau(  49) = (   0.2500010   0.1443372  -0.7272732  )
        50        Mo     tau(  50) = (   0.3750034   0.0721723  -0.2424032  )
        51        S      tau(  51) = (   0.2500017   0.1443391  -0.3667788  )
        52        S      tau(  52) = (   0.3750010   0.0721682  -0.6030489  )
        53        S      tau(  53) = (   0.3750010   0.0721683  -0.8514963  )
        54        S      tau(  54) = (   0.2500016   0.1443391  -0.1180271  )
        55        Mo     tau(  55) = (   0.2500049   0.1443558   0.2424800  )
        56        Mo     tau(  56) = (   0.3750695   0.0717200   0.7264262  )
        57        S      tau(  57) = (   0.2500704   0.1440362   0.6019475  )
        58        S      tau(  58) = (   0.3750099   0.0721483   0.3668106  )
        59        S      tau(  59) = (   0.3749948   0.0721851   0.1180824  )
        60        S      tau(  60) = (   0.2500131   0.1413211   0.8516135  )
[...]
       181        Mo     tau( 181) = (   0.3750016   0.7938567  -0.7272732  )
       182        Mo     tau( 182) = (   0.5000025   0.7216901  -0.2424039  )
       183        S      tau( 183) = (   0.3750019   0.7938578  -0.3667793  )
       184        S      tau( 184) = (   0.5000016   0.7216877  -0.6030489  )
       185        S      tau( 185) = (   0.5000016   0.7216878  -0.8514963  )
       186        S      tau( 186) = (   0.3750020   0.7938579  -0.1180272  )
       187        Mo     tau( 187) = (   0.3750095   0.7938535   0.2424732  )
       188        Mo     tau( 188) = (   0.5004392   0.7222160   0.7277389  )
       189        S      tau( 189) = (   0.3766340   0.7948794   0.6008559  )
       190        S      tau( 190) = (   0.5000179   0.7216263   0.3668038  )
       191        S      tau( 191) = (   0.4999965   0.7216810   0.1180753  )
       192        S      tau( 192) = (   0.3755295   0.7963504   0.8505132  )
       193        Pt     tau( 193) = (   0.1371069   0.5032381   0.9573497  )
       194        Pt     tau( 194) = (   0.3635722   0.5033563   0.9571359  )
       195        Pd     tau( 195) = (  -0.0010313   0.2875852   0.9827085  )

     DFT-D3 Dispersion Correction (3-body terms):
       Reference C6 values for interpolation:

[...]
   -40.7373 -40.7331 -40.7280 -40.7280 -40.7280 -40.7280 -40.7280 -40.7280
   -40.7278 -40.7277 -40.7271 -40.7271 -40.7271 -40.7271 -40.7132 -40.7091
   -40.7048 -40.6979 -40.6932 -40.6932 -40.6932 -40.6932 -40.6932 -40.6932
   -40.6931 -40.6931 -40.6923 -40.6923 -40.6923 -40.6923 -40.6811 -40.6811
   -40.6811 -40.6809 -40.6802 -40.6802 -40.6741 -40.6695 -40.6659 -40.6620
   -40.6618 -40.6618 -40.6618 -40.6616 -40.6608 -40.6608 -40.6553 -40.6448
   -40.6448 -40.6447 -40.6447 -40.6438 -40.6438 -40.6422 -40.6405 -40.6268
   -40.6147 -40.6141 -40.6141 -40.6141 -40.6139 -40.6131 -40.6131 -40.5974
   -40.5858 -40.5746 -20.3039 -19.9555 -19.9282 -19.9001 -19.8327 -19.8052
   -19.7935 -19.7196 -19.7079 -19.5825 -19.4925 -19.4874 -19.4048 -19.3963
   -19.2991 -19.2930 -19.2128 -19.1800 -18.9463 -18.8892 -18.8352 -18.8211
   -18.7827 -18.7811 -18.7780 -18.7757 -18.7532 -18.7370 -18.7211 -18.7142
   -18.7032 -18.6962 -18.6813 -18.6564 -18.6412 -18.6208 -18.6128 -18.6110
   -18.6012 -18.5910 -18.5833 -18.5540 -18.5479 -18.5358 -18.5278 -18.5128
   -18.4938 -18.4708 -18.4671 -18.4636 -18.4393 -18.4188 -18.4143 -18.3918
   -18.3793 -18.3610 -18.3536 -18.3289 -18.3086 -18.3049 -18.2775 -18.2561
   -18.2470 -18.2427 -18.2204 -18.1970 -18.1922 -18.1885 -18.1698 -18.1582
   -18.1564 -18.1556 -18.1545 -18.1360 -18.1310 -18.1282 -18.1268 -18.1252
   -18.1221 -18.1157 -18.1143 -18.1128 -18.1011 -18.0879 -18.0704 -18.0679
   -18.0651 -18.0611 -18.0589 -18.0574 -18.0566 -18.0480 -18.0477 -18.0379
   -18.0132 -18.0078 -18.0004 -17.9945 -17.9918 -17.9809 -17.9571 -17.9521
   -17.9500 -17.9376 -17.9332 -17.9212 -17.9054 -17.9023 -17.8997 -17.8970
   -17.8771 -17.8767 -17.8765 -17.8758 -17.8754 -17.8745 -17.8631 -17.8612
   -17.8442 -17.8407 -17.8195 -17.8165 -17.8003 -17.7967 -17.7848 -17.7828
   -17.7767 -17.7765 -12.3967 -12.1739 -12.0732 -11.8952 -11.7953 -11.7526
   -11.7296 -11.6118 -11.5819 -11.5622 -11.5591 -11.5566 -11.5549 -11.5393
   -11.5364 -11.5078 -11.5025 -11.4792 -11.4682 -11.4526 -11.4435 -11.4416
   -11.4084 -11.4008 -11.3855 -11.3721 -11.3590 -11.3504 -11.3345 -11.3301
   -11.3245 -11.3186 -11.3132 -11.3121 -11.2908 -11.2692 -11.2627 -11.2571
   -11.2504 -11.2423 -11.2288 -11.2279 -11.2204 -11.2077 -11.2047 -11.2003
   -11.1903 -11.1749 -11.1548 -11.1391 -11.1384 -11.0979 -11.0892 -11.0693
   -11.0396 -11.0249 -11.0158 -10.9917 -10.9894 -10.9780 -10.9660 -10.9614
   -10.9405 -10.9052 -10.9001 -10.8986 -10.8940 -10.8870 -10.8782 -10.8710
[...]
    -3.4385  -3.4126  -3.4089  -3.4037  -3.4021  -3.4011  -3.3981  -3.3922
    -3.3813  -3.3615  -3.3558  -3.3422  -3.3374  -3.3357  -3.3339  -3.3334
    -3.3308  -3.3291  -3.3111  -3.3035  -3.3019  -3.2947  -3.2883  -3.2851
    -3.2786  -3.2703  -3.2693  -3.2673  -3.2642  -3.2612  -3.2450  -3.2382
    -3.2374  -3.2271  -3.2213  -3.2174  -3.2173  -3.2139  -3.2037  -3.1703
    -3.1612  -3.1571  -3.1401  -3.1391  -3.1254  -3.1207  -3.1143  -3.0870
    -3.0834  -3.0790  -3.0784  -3.0774  -3.0764  -3.0741  -3.0683  -3.0671
    -3.0635  -3.0597  -3.0519  -3.0495  -3.0469  -3.0459  -3.0372  -3.0316
    -3.0295  -3.0286  -3.0255  -3.0241  -3.0189  -3.0086  -3.0026  -3.0010
    -2.9973  -2.9903  -2.9872  -2.9758  -2.9668  -2.9639  -2.9610  -2.9511
    -2.9466  -2.9392  -2.9319  -2.9269  -2.8941  -2.8647  -2.8573  -2.8487
    -2.8432  -2.8150  -2.8022  -2.7809  -2.7677  -2.6943  -2.6806  -2.6687
    -2.6577  -2.6411  -2.6342  -2.6229  -2.6167  -2.5988  -2.5984  -2.5900
    -2.5818  -2.5814  -2.5792  -2.5664  -2.5487  -2.5181  -2.4864  -2.4680
    -2.4547  -2.4526  -2.4485  -2.4405  -2.4382  -2.4340  -2.4039  -2.4013

     the Fermi energy is    -4.7798 ev

!    total energy              =  -35654.94732664 Ry
     total all-electron energy =   -704233.493144 Ry
     estimated scf accuracy    <          9.1E-09 Ry
     smearing contrib. (-TS)   =      -0.00000017 Ry
     internal energy E=F+TS    =  -35654.94732647 Ry

     The total energy is F=E-TS. E is the sum of the following terms:
     one-electron contribution = 1222805.53290144 Ry
     hartree contribution      = -611621.23945568 Ry
     xc contribution           =   -2086.41927556 Ry
     ewald contribution        = -622853.46764638 Ry
     DFT-D3 Dispersion         =      -5.47329935 Ry
     one-center paw contrib.   =  -21893.88055096 Ry

     convergence has been achieved in  12 iterations

     negative rho (up, down):  9.071E-04 0.000E+00

     Forces acting on atoms (cartesian axes, Ry/au):

     atom    1 type  1   force =    -0.00000077   -0.00000026    0.00068828
     atom    2 type  1   force =     0.00002583   -0.00000731    0.00000533
     atom    3 type  2   force =     0.00000014   -0.00000062    0.00000176
     atom    4 type  2   force =    -0.00000169    0.00000008    0.00161539
     atom    5 type  2   force =    -0.00000201   -0.00000053   -0.00235992
     atom    6 type  2   force =    -0.00000065    0.00000516    0.00002392
     atom    7 type  1   force =     0.00000912   -0.00000488    0.00002398
     atom    8 type  1   force =     0.00026436   -0.00016158    0.00017076
     atom    9 type  2   force =     0.00016145   -0.00001858    0.00022534
     atom   10 type  2   force =     0.00001100   -0.00001683    0.00002815
     atom   11 type  2   force =    -0.00000913   -0.00000752    0.00000610
     atom   12 type  2   force =    -0.00010778   -0.00069990    0.00012725
     atom   13 type  1   force =    -0.00000012   -0.00000127    0.00068878
     atom   14 type  1   force =    -0.00000958    0.00001516    0.00000410
     atom   15 type  2   force =     0.00000197   -0.00000009    0.00000377
     atom   16 type  2   force =    -0.00000152    0.00000000    0.00161534
     atom   17 type  2   force =    -0.00000183   -0.00000051   -0.00236015
     atom   18 type  2   force =     0.00000543    0.00000164    0.00001384
     atom   19 type  1   force =    -0.00001423   -0.00000067    0.00002139
     atom   20 type  1   force =    -0.00038983   -0.00013604   -0.00097129
     atom   21 type  2   force =    -0.00030719    0.00018086    0.00020264
     atom   22 type  2   force =     0.00000230    0.00001161    0.00002050
     atom   23 type  2   force =    -0.00000682   -0.00000977    0.00001255
     atom   24 type  2   force =    -0.00015018    0.00003208    0.00028629
     atom   25 type  1   force =    -0.00000012   -0.00000083    0.00068814
     atom   26 type  1   force =     0.00000050   -0.00000742    0.00001608
     atom   27 type  2   force =    -0.00000074    0.00000187    0.00000073
     atom   28 type  2   force =    -0.00000153   -0.00000001    0.00161537
     atom   29 type  2   force =    -0.00000183   -0.00000056   -0.00236001
     atom   30 type  2   force =     0.00000229   -0.00000379    0.00000695
     atom   31 type  1   force =    -0.00001444   -0.00000304    0.00001224
     atom   32 type  1   force =     0.00001074    0.00028484   -0.00002722
     atom   33 type  2   force =    -0.00021730    0.00038546   -0.00020945
     atom   34 type  2   force =    -0.00000222    0.00000562    0.00004049
     atom   35 type  2   force =    -0.00003133   -0.00001624    0.00001310
     atom   36 type  2   force =    -0.00003995    0.00013198    0.00022613
     atom   37 type  1   force =     0.00000034   -0.00000099    0.00068853
     atom   38 type  1   force =     0.00002462    0.00002218   -0.00000424
     atom   39 type  2   force =    -0.00000144    0.00000052    0.00000465
     atom   40 type  2   force =    -0.00000147    0.00000014    0.00161528
     atom   41 type  2   force =    -0.00000186   -0.00000051   -0.00235994
     atom   42 type  2   force =    -0.00000314    0.00000273    0.00000791
     atom   43 type  1   force =    -0.00000779   -0.00000407    0.00000102
     atom   44 type  1   force =    -0.00009470   -0.00002545    0.00016710
     atom   45 type  2   force =     0.00015586   -0.00019966   -0.00007187
     atom   46 type  2   force =    -0.00003025   -0.00000588    0.00002843
     atom   47 type  2   force =    -0.00000801    0.00000462    0.00001899
     atom   48 type  2   force =     0.00005733   -0.00026443    0.00038369
     atom   49 type  1   force =    -0.00000050   -0.00000081    0.00068810
     atom   50 type  1   force =    -0.00002646   -0.00002527   -0.00000020
     atom   51 type  2   force =    -0.00000164    0.00000194    0.00000542
     atom   52 type  2   force =    -0.00000188   -0.00000009    0.00161562
     atom   53 type  2   force =    -0.00000209   -0.00000056   -0.00235990
     atom   54 type  2   force =    -0.00000381    0.00000705    0.00001041
     atom   55 type  1   force =     0.00000847   -0.00000807    0.00000447
     atom   56 type  1   force =    -0.00019612    0.00012320   -0.00007367
     atom   57 type  2   force =     0.00017703   -0.00014856   -0.00049440
     atom   58 type  2   force =    -0.00001592    0.00000909    0.00005564
     atom   59 type  2   force =     0.00002134   -0.00001617    0.00002214
     atom   60 type  2   force =     0.00019900    0.00025819    0.00013220
[...]
     atom  181 type  1   force =    -0.00000065   -0.00000112    0.00068872
     atom  182 type  1   force =    -0.00001160   -0.00000688    0.00000418
     atom  183 type  2   force =    -0.00000343   -0.00000229    0.00000451
     atom  184 type  2   force =    -0.00000182   -0.00000011    0.00161547
     atom  185 type  2   force =    -0.00000201   -0.00000057   -0.00235998
     atom  186 type  2   force =    -0.00000525   -0.00000170    0.00000572
     atom  187 type  1   force =    -0.00000257    0.00000707    0.00000734
     atom  188 type  1   force =     0.00009396    0.00007922    0.00008006
     atom  189 type  2   force =    -0.00010549   -0.00034438   -0.00001691
     atom  190 type  2   force =    -0.00001266    0.00001460    0.00003110
     atom  191 type  2   force =    -0.00000467   -0.00001903    0.00001072
     atom  192 type  2   force =    -0.00022039   -0.00046350    0.00010919
     atom  193 type  3   force =     0.00047886   -0.00023130    0.00079847
     atom  194 type  3   force =     0.00028425    0.00036419   -0.00006275
     atom  195 type  4   force =     0.00057886   -0.00046551    0.00032005

     Total force =     0.003781     Total SCF correction =     0.000688
     SCF correction compared to forces is large: reduce conv_thr to get better values
     Energy error            =      3.3E-05 Ry
     Gradient error          =      9.7E-04 Ry/Bohr

     bfgs converged in  20 scf cycles and  19 bfgs steps
     (criteria: energy <  1.0E-04 Ry, force <  1.0E-03 Ry/Bohr)

     End of BFGS Geometry Optimization

     Final energy             =  -35654.9473266443 Ry

     File ./outdir/pwscf.bfgs deleted, as requested
Begin final coordinates

ATOMIC_POSITIONS (angstrom)
Mo               0.0000119917        1.8193638619       -9.1672481230    0   0   0
Mo               1.5756136568        0.9097075315       -3.0554901653    0   0   0
S                0.0000188998        1.8193822938       -4.6232556019    0   0   0
S                1.5756321638        0.9096773839       -7.6014065489    0   0   0
S                1.5756326175        0.9096785128      -10.7330757790    0   0   0
S                0.0000189190        1.8193860094       -1.4877129945    0   0   0
Mo               0.0000076007        1.8197938245        3.0569875161
Mo               1.5754849039        0.8998871002        9.1695281191
S               -0.0008504585        1.8294280432        7.6170420382
S                1.5748453202        0.9095005831        4.6248009669
S                1.5757644846        0.9099798549        1.4894697466
S                0.0003500904        1.7651659297       10.7881469073
Mo              -1.5756053507        4.5484193819       -9.1672481230    0   0   0
Mo               0.0000378379        3.6387394919       -3.0554952701    0   0   0
S               -1.5755913433        4.5484363582       -4.6232494962    0   0   0
S                0.0000148214        3.6387329039       -7.6014065489    0   0   0
S                0.0000152751        3.6387340328      -10.7330757790    0   0   0
S               -1.5755906502        4.5484413613       -1.4877305502    0   0   0
Mo              -1.5753978980        4.5486620808        3.0574347909
Mo              -0.0072947653        3.6245582578        9.1908594841
S               -1.5704656044        4.5495379029        7.6228828506
S               -0.0001622875        3.6387695334        4.6257980215
S                0.0005636724        3.6394052996        1.4898202939
S               -1.6378097233        4.5768478979       10.7674427360
Mo              -3.1512226931        7.2774749019       -9.1672481230    0   0   0
Mo              -1.5755910988        6.3678216792       -3.0555115988    0   0   0
S               -3.1512162438        7.2774954350       -4.6232578178    0   0   0
S               -1.5756025210        6.3677884239       -7.6014065489    0   0   0
S               -1.5756020673        6.3677895528      -10.7330757790    0   0   0
S               -3.1512127704        7.2774877076       -1.4877200710    0   0   0
Mo              -3.1513539061        7.2775581159        3.0572524435
Mo              -1.5942825476        6.3782550399        9.1835837282
S               -3.1645500664        7.2724878901        7.6064163161
S               -1.5759116580        6.3677137209        4.6254864020
S               -1.5753732939        6.3679261810        1.4896547732
S               -3.1579446322        7.2907573048       10.7549927958
Mo              -4.7268400355       10.0065304219       -9.1672481230    0   0   0
Mo              -3.1512405618        9.0968403586       -3.0554816746    0   0   0
S               -4.7268341792       10.0065523623       -4.6232463762    0   0   0
S               -3.1512198634        9.0968439439       -7.6014065489    0   0   0
S               -3.1512194097        9.0968450728      -10.7330757790    0   0   0
S               -4.7268370797       10.0065537885       -1.4877176751    0   0   0
Mo              -4.7269823047       10.0064544597        3.0569599976
Mo              -3.1561727426        9.0944792311        9.1712437575
S               -4.7385087146        9.9962305865        7.6051954255
S               -3.1512545909        9.0969733050        4.6246245718
S               -3.1513704569        9.0967099398        1.4890150312
S               -4.7192744871       10.0105163514       10.7473695914
Mo               3.1512517547        1.8193638619       -9.1672481230    0   0   0
Mo               4.7269020221        0.9097289540       -3.0554823951    0   0   0
S                3.1512612351        1.8193882564       -4.6232320683    0   0   0
S                4.7268719268        0.9096773839       -7.6014065489    0   0   0
S                4.7268723805        0.9096785128      -10.7330757790    0   0   0
S                3.1512592485        1.8193890201       -1.4877261251    0   0   0
Mo               3.1511910422        1.8194336429        3.0576839903
Mo               4.7303460243        0.8968712258        9.1506610731
S                3.1494389212        1.7904662711        7.5742353652
S                4.7274976359        0.9092072008        4.6240057978
S                4.7266299283        0.9100193732        1.4891626802
S                3.1620894545        1.7863872310       10.7249106692
[...]
Mo               4.7268792535       10.0065304219       -9.1672481230    0   0   0
Mo               6.3025111524        9.0968738021       -3.0554915260    0   0   0
S                4.7268840634       10.0065452125       -4.6232380477    0   0   0
S                6.3024994256        9.0968439439       -7.6014065489    0   0   0
S                6.3024998793        9.0968450728      -10.7330757790    0   0   0
S                4.7268847312       10.0065459141       -1.4877283294    0   0   0
Mo               4.7270599190       10.0066730577        3.0573651503
Mo               6.3001829537        9.1015549595        9.1919840946
S                4.7452568448       10.0204941396        7.5931720163
S                6.3025807611        9.0960304187        4.6247112348
S                6.3023427161        9.0971611194        1.4890004127
S                4.7219049878       10.0236772801       10.7434310372
Pt               1.7053156203        6.2398160779       12.1841272691
Pt               4.5662391996        6.3378045655       12.0503145831
Pd               0.1165217891        3.8148655319       12.1863177202
End final coordinates

     Writing all to output data dir ./outdir/pwscf.save/ :
     XML data file, charge density, pseudopotentials, collected wavefunctions

     General routines

     Parallel routines

   This run was terminated on:  15: 8: 6   7Apr2024

   JOB DONE.