     Program PWSCF v.7.2 starts on  4Oct2023 at  5:35:26

     Waiting for input...
     Reading input from standard input
Warning: card &CELL ignored
Warning: card / ignored

     Current dimensions of program PWSCF are:
     Max number of different atomic species (ntypx) = 10
     Max number of k-points (npk) =  40000
     Max angular momentum in pseudopotentials (lmaxx) =  4
     file Mo.pbe-spn-kjpaw_psl.1.0.0.UPF: wavefunction(s)  4S 4D renormalized
     file S.pbe-n-kjpaw_psl.1.0.0.UPF: wavefunction(s)  3S 3P renormalized
     file Pd.pbe-spn-kjpaw_psl.1.0.0.UPF: wavefunction(s)  4S 5S 4D renormalized

     R & G space division:  proc/nbgrp/npool/nimage =      36
     Subspace diagonalization in iterative solution of the eigenvalue problem:
     one sub-group per band group will be used

     Using Slab Decomposition

     bravais-lattice index     =            0
     lattice parameter (alat)  =      23.8395  a.u.
     unit-cell volume          =   28182.8498 (a.u.)^3
     number of atoms/cell      =          146
     number of atomic types    =            3
     number of electrons       =      1284.00
     number of Kohn-Sham states=          770
     kinetic-energy cutoff     =      77.0000  Ry
     charge density cutoff     =     539.0000  Ry
     scf convergence threshold =      1.0E-06
     mixing beta               =       0.2000
     number of iterations used =            8  plain     mixing
     energy convergence thresh.=      1.0E-04
     force convergence thresh. =      1.0E-03
     Exchange-correlation= SLA  PW   PBX  PBC
                           (   1   4   3   4   0   0   0)
     nstep                     =         1000

     Effective Screening Medium Method
     Boundary Conditions: Vacuum-Slab-Vacuum
     total charge in unit cell        =   0.0000
     grid points for fit at edges     =        4

     celldm(1)=  23.839504  celldm(2)=   0.000000  celldm(3)=   0.000000
     celldm(4)=   0.000000  celldm(5)=   0.000000  celldm(6)=   0.000000

     crystal axes: (cart. coord. in units of alat)
               a(1) = (   1.000000   0.000000   0.000000 )
               a(2) = (  -0.500001   0.866026   0.000000 )
               a(3) = (   0.000000   0.000000   2.401941 )

     reciprocal axes: (cart. coord. in units 2 pi/alat)
               b(1) = (  1.000000  0.577351  0.000000 )
               b(2) = (  0.000000  1.154700  0.000000 )
               b(3) = (  0.000000  0.000000  0.416330 )

     PseudoPot. # 1 for Mo read from file:
     ./pseudo/Mo.pbe-spn-kjpaw_psl.1.0.0.UPF
     MD5 check sum: 317bf72632116215fd98f72de1686f13
     Pseudo is Projector augmented-wave + core cor, Zval = 14.0
     Generated using 'atomic' code by A. Dal Corso  v.7.2
     Shape of augmentation charge: PSQ
     Using radial grid of 1229 points,  6 beta functions with:
                l(1) =   0
                l(2) =   0
                l(3) =   1
                l(4) =   1
                l(5) =   2
                l(6) =   2
     Q(r) pseudized with 0 coefficients

     PseudoPot. # 2 for S  read from file:
     ./pseudo/S.pbe-n-kjpaw_psl.1.0.0.UPF
     MD5 check sum: 8b7b5302570d38d5e87fed6a1065abda
     Pseudo is Projector augmented-wave + core cor, Zval =  6.0
     Generated using 'atomic' code by A. Dal Corso  v.7.2
     Shape of augmentation charge: PSQ
     Using radial grid of 1151 points,  6 beta functions with:
                l(1) =   0
                l(2) =   0
                l(3) =   1
                l(4) =   1
                l(5) =   2
                l(6) =   2
     Q(r) pseudized with 0 coefficients

     PseudoPot. # 3 for Pd read from file:
     ./pseudo/Pd.pbe-spn-kjpaw_psl.1.0.0.UPF
     MD5 check sum: a60571a671f2502b8a6a4569d20a6edb
     Pseudo is Projector augmented-wave + core cor, Zval = 18.0
     Generated using 'atomic' code by A. Dal Corso  v.7.2
     Shape of augmentation charge: PSQ
     Using radial grid of 1235 points,  6 beta functions with:
                l(1) =   0
                l(2) =   0
                l(3) =   1
                l(4) =   1
                l(5) =   2
                l(6) =   2
     Q(r) pseudized with 0 coefficients

     atomic species   valence    mass     pseudopotential
        Mo            14.00    95.95000     Mo( 1.00)
        S              6.00    32.06000     S ( 1.00)
        Pd            18.00   106.42000     Pd( 1.00)

     No symmetry found

   Cartesian axes

     site n.     atom                  positions (alat units)
         1           Mo  tau(   1) = (   0.1244805   0.2154429   0.4826124  )
         2           Mo  tau(   2) = (   0.1250004   0.0721694  -0.4825273  )
         3           Mo  tau(   3) = (   0.0000154   0.1443583  -0.0000534  )
         4           S   tau(   4) = (   0.0000004   0.0000006  -0.6064556  )
         5           S   tau(   5) = (   0.1249822   0.0722030  -0.1241916  )
         6           S   tau(   6) = (   0.0001873   0.1444894   0.3573292  )
         7           S   tau(   7) = (   0.0000004   0.0000005  -0.3584711  )
         8           S   tau(   8) = (   0.1250220   0.0721432   0.1241096  )
         9           S   tau(   9) = (  -0.0009222   0.1433430   0.6062350  )
        10           Mo  tau(  10) = (  -0.0011812   0.4330952   0.4826123  )
        11           Mo  tau(  11) = (   0.0000001   0.2886759  -0.4825273  )
        12           Mo  tau(  12) = (  -0.1249761   0.3608493  -0.0000533  )
        13           S   tau(  13) = (  -0.1249999   0.2165071  -0.6064556  )
        14           S   tau(  14) = (   0.0000232   0.2886904  -0.1241345  )
        15           S   tau(  15) = (  -0.1247753   0.3609305   0.3573291  )
        16           S   tau(  16) = (  -0.1249998   0.2165070  -0.3584711  )
        17           S   tau(  17) = (   0.0000901   0.2887289   0.1242236  )
        18           S   tau(  18) = (  -0.1263226   0.3605428   0.6062351  )
        19           Mo  tau(  19) = (  -0.1251400   0.6495983   0.4819363  )
        20           Mo  tau(  20) = (  -0.1250002   0.5051824  -0.4825273  )
        21           Mo  tau(  21) = (  -0.2500026   0.5773383  -0.0001491  )
        22           S   tau(  22) = (  -0.2500002   0.4330136  -0.6064556  )
        23           S   tau(  23) = (  -0.1249812   0.5051509  -0.1241919  )
        24           S   tau(  24) = (  -0.2500015   0.5775831   0.3575295  )
        25           S   tau(  25) = (  -0.2500001   0.4330135  -0.3584711  )
        26           S   tau(  26) = (  -0.1250129   0.5052153   0.1241101  )
        27           S   tau(  27) = (  -0.2500018   0.5771934   0.6060379  )
        28           Mo  tau(  28) = (   0.2499987  -0.0001601   0.4819365  )
        29           Mo  tau(  29) = (  -0.2500004   0.7216889  -0.4825273  )
        30           Mo  tau(  30) = (  -0.3750135   0.7938631  -0.0001491  )
        31           S   tau(  31) = (  -0.3750004   0.6495201  -0.6064556  )
        32           S   tau(  32) = (  -0.2500026   0.7216883  -0.1242347  )
        33           S   tau(  33) = (  -0.3747997   0.7937400   0.3575295  )
        34           S   tau(  34) = (  -0.3750004   0.6495200  -0.3584711  )
        35           S   tau(  35) = (  -0.2500029   0.7216883   0.1240299  )
        36           S   tau(  36) = (  -0.3751376   0.7939346   0.6060379  )
        37           Mo  tau(  37) = (   0.3755166   0.2154425   0.4826119  )
        38           Mo  tau(  38) = (   0.3750004   0.0721694  -0.4825273  )
        39           Mo  tau(  39) = (   0.2499990   0.1443474  -0.0000968  )
        40           S   tau(  40) = (   0.2500004   0.0000006  -0.6064556  )
        41           S   tau(  41) = (   0.3750152   0.0722028  -0.1241921  )
        42           S   tau(  42) = (   0.2499983   0.1443201   0.3580593  )
        43           S   tau(  43) = (   0.2500004   0.0000005  -0.3584711  )
        44           S   tau(  44) = (   0.3749754   0.0721432   0.1241106  )
        45           S   tau(  45) = (   0.2499987   0.1437775   0.6065499  )
        46           Mo  tau(  46) = (   0.2499984   0.4330123   0.4872880  )
        47           Mo  tau(  47) = (   0.2500001   0.2886759  -0.4825273  )
        48           Mo  tau(  48) = (   0.1250277   0.3608616  -0.0000572  )
        49           S   tau(  49) = (   0.1250001   0.2165071  -0.6064556  )
        50           S   tau(  50) = (   0.2499987   0.2886898  -0.1241693  )
        51           S   tau(  51) = (   0.1266397   0.3617911   0.3615924  )
        52           S   tau(  52) = (   0.1250002   0.2165070  -0.3584711  )
        53           S   tau(  53) = (   0.2499988   0.2886671   0.1241958  )
        54           S   tau(  54) = (   0.1173054   0.3564020   0.6108885  )
        55           Mo  tau(  55) = (   0.1243363   0.6504991   0.4826116  )
        56           Mo  tau(  56) = (   0.1249998   0.5051824  -0.4825273  )
        57           Mo  tau(  57) = (   0.0000060   0.5773464  -0.0000969  )
        58           S   tau(  58) = (  -0.0000002   0.4330136  -0.6064556  )
        59           S   tau(  59) = (   0.1250101   0.5051751  -0.1241696  )
        60           S   tau(  60) = (  -0.0000165   0.5773581   0.3580590  )
[...]
       132           S   tau( 132) = (   0.5000130   0.5773585   0.3580587  )
       133           S   tau( 133) = (   0.4999999   0.4330135  -0.3584711  )
       134           S   tau( 134) = (   0.6250081   0.5052147   0.1241104  )
       135           S   tau( 135) = (   0.5004826   0.5776298   0.6065487  )
       136           Mo  tau( 136) = (  -0.0000706   0.0000401   0.4813070  )
       137           Mo  tau( 137) = (   0.4999996   0.7216889  -0.4825273  )
       138           Mo  tau( 138) = (   0.3749881   0.7938314  -0.0000535  )
       139           S   tau( 139) = (   0.3749996   0.6495201  -0.6064556  )
       140           S   tau( 140) = (   0.4999594   0.7216844  -0.1241918  )
       141           S   tau( 141) = (   0.3749610   0.7936184   0.3573285  )
       142           S   tau( 142) = (   0.3749996   0.6495200  -0.3584711  )
       143           S   tau( 143) = (   0.5000310   0.7216802   0.1241101  )
       144           S   tau( 144) = (   0.3753979   0.7951517   0.6062337  )
       145           Pd  tau( 145) = (   0.2499985   0.4330123   0.7148096  )
       146           Pd  tau( 146) = (   0.2500134   0.4330448   0.9209436  )

     DFT-D3 Dispersion Correction (3-body terms):
       Reference C6 values for interpolation:

         atom   Coordination number   C6
         S          0.000           268.01
         S          0.995           261.99
         S          1.990           251.62
         Mo         0.000          1691.79
         Mo         1.942          1004.01
         Mo        11.056           674.22
         Pd         0.000          1217.01
         Pd         1.863           573.90
         Pd         5.710           531.75

       Values used:

         atom   Coordination number  R0_AB[au]  C6      C8
         Mo        10.173            3.547    674.22  77634.20
         Mo        10.189            3.547    674.22  77634.20
         Mo        10.201            3.547    674.22  77634.20
         S          3.753            3.128    251.62  12327.25
[...]
     atom   13 type  2   force =     0.00000000    0.00000000    0.00000000
     atom   14 type  2   force =    -0.00000775   -0.00000502    0.00000377
     atom   15 type  2   force =    -0.00000688   -0.00000375    0.00000534
     atom   16 type  2   force =     0.00000000    0.00000000    0.00000000
     atom   17 type  2   force =    -0.00000429   -0.00000320   -0.00000223
     atom   18 type  2   force =    -0.00000426   -0.00000841    0.00000241
     atom   19 type  1   force =     0.00000148   -0.00000105    0.00000231
     atom   20 type  1   force =     0.00000000    0.00000000    0.00000000
     atom   21 type  1   force =     0.00000075   -0.00001400   -0.00001338
     atom   22 type  2   force =     0.00000000    0.00000000    0.00000000
     atom   23 type  2   force =    -0.00000107   -0.00000717    0.00000130
     atom   24 type  2   force =     0.00000027   -0.00001453   -0.00000084
     atom   25 type  2   force =     0.00000000    0.00000000    0.00000000
     atom   26 type  2   force =     0.00000070   -0.00000857    0.00000217
     atom   27 type  2   force =     0.00000015   -0.00000104    0.00001520
     atom   28 type  1   force =    -0.00000171    0.00000310    0.00000209
     atom   29 type  1   force =     0.00000000    0.00000000    0.00000000
     atom   30 type  1   force =    -0.00001388    0.00001002   -0.00001354
     atom   31 type  2   force =     0.00000000    0.00000000    0.00000000
     atom   32 type  2   force =    -0.00000032    0.00000051   -0.00000340
     atom   33 type  2   force =    -0.00001375    0.00000847   -0.00000036
     atom   34 type  2   force =     0.00000000    0.00000000    0.00000000
     atom   35 type  2   force =    -0.00000029    0.00000071    0.00000073
     atom   36 type  2   force =    -0.00000164    0.00000133    0.00001473
     atom   37 type  1   force =     0.00001840    0.00001843   -0.00000654
     atom   38 type  1   force =     0.00000000    0.00000000    0.00000000
     atom   39 type  1   force =    -0.00000333    0.00000678   -0.00000994
     atom   40 type  2   force =     0.00000000    0.00000000    0.00000000
     atom   41 type  2   force =     0.00000592    0.00000181    0.00000102
     atom   42 type  2   force =    -0.00000127    0.00000417   -0.00000383
     atom   43 type  2   force =     0.00000000    0.00000000    0.00000000
     atom   44 type  2   force =     0.00000558    0.00000401    0.00000249
     atom   45 type  2   force =    -0.00000111   -0.00000600    0.00001304
     atom   46 type  1   force =    -0.00000176   -0.00000122    0.00000462
     atom   47 type  1   force =     0.00000000    0.00000000    0.00000000
     atom   48 type  1   force =    -0.00001129   -0.00000743   -0.00001767
     atom   49 type  2   force =     0.00000000    0.00000000    0.00000000
     atom   50 type  2   force =    -0.00000111    0.00000062    0.00000022
     atom   51 type  2   force =    -0.00000975   -0.00000599   -0.00000841
     atom   52 type  2   force =     0.00000000    0.00000000    0.00000000
     atom   53 type  2   force =    -0.00000121   -0.00000263    0.00000642
     atom   54 type  2   force =    -0.00001033   -0.00000653    0.00000217
     atom   55 type  1   force =     0.00002630    0.00000822   -0.00000729
     atom   56 type  1   force =     0.00000000    0.00000000    0.00000000
     atom   57 type  1   force =     0.00000549   -0.00000510   -0.00001208
     atom   58 type  2   force =     0.00000000    0.00000000    0.00000000
     atom   59 type  2   force =     0.00000057   -0.00000104    0.00000055
     atom   60 type  2   force =     0.00000369   -0.00000267   -0.00000391
[...]
     atom  132 type  2   force =    -0.00000357   -0.00000114   -0.00000408
     atom  133 type  2   force =     0.00000000    0.00000000    0.00000000
     atom  134 type  2   force =     0.00000017   -0.00000763    0.00000231
     atom  135 type  2   force =     0.00000529    0.00000361    0.00001384
     atom  136 type  1   force =    -0.00002336    0.00001612   -0.00001328
     atom  137 type  1   force =     0.00000000    0.00000000    0.00000000
     atom  138 type  1   force =    -0.00001474    0.00002622   -0.00001534
     atom  139 type  2   force =     0.00000000    0.00000000    0.00000000
     atom  140 type  2   force =    -0.00000510    0.00000583    0.00000123
     atom  141 type  2   force =     0.00000172    0.00000953    0.00000524
     atom  142 type  2   force =     0.00000000    0.00000000    0.00000000
     atom  143 type  2   force =    -0.00000702    0.00000520    0.00000211
     atom  144 type  2   force =    -0.00000347    0.00000940    0.00000260
     atom  145 type  3   force =    -0.00000215   -0.00000205   -0.00012711
     atom  146 type  3   force =    -0.00000100   -0.00000076    0.00000346

     DFT-D3 dispersion contribution to forces:
     atom    1 type  1   force =     0.00020495    0.00034821   -0.00210240
     atom    2 type  1   force =     0.00000020   -0.00000004    0.00260433
     atom    3 type  1   force =    -0.00000801   -0.00000741   -0.00002682
     atom    4 type  2   force =     0.00000000   -0.00000000    0.00440951
     atom    5 type  2   force =     0.00000126   -0.00000136   -0.00004816
     atom    6 type  2   force =    -0.00000815    0.00000431   -0.00014573
     atom    7 type  2   force =     0.00000059   -0.00000034    0.00023630
     atom    8 type  2   force =    -0.00000352   -0.00001973    0.00009027
     atom    9 type  2   force =     0.00024098    0.00027736   -0.00424367
     atom   10 type  1   force =     0.00040404    0.00000340   -0.00210237
     atom   11 type  1   force =     0.00000027    0.00000016    0.00260401
     atom   12 type  1   force =    -0.00001041   -0.00000324   -0.00002682
     atom   13 type  2   force =     0.00000007    0.00000004    0.00440941
     atom   14 type  2   force =     0.00000020    0.00000011   -0.00005018
     atom   15 type  2   force =    -0.00000034   -0.00000921   -0.00014573
     atom   16 type  2   force =     0.00000047    0.00000027    0.00023640
     atom   17 type  2   force =    -0.00001153   -0.00000666    0.00009869
     atom   18 type  2   force =     0.00036070    0.00007003   -0.00424365
     atom   19 type  1   force =     0.00010916   -0.00006302   -0.00252180
     atom   20 type  1   force =     0.00000007    0.00000020    0.00260433
     atom   21 type  1   force =    -0.00000000    0.00000006   -0.00002028
     atom   22 type  2   force =     0.00000000    0.00000001    0.00440951
     atom   23 type  2   force =    -0.00000055    0.00000177   -0.00004817
     atom   24 type  2   force =     0.00000000    0.00000371   -0.00019718
     atom   25 type  2   force =    -0.00000000    0.00000069    0.00023630
     atom   26 type  2   force =    -0.00001884    0.00000681    0.00009027
     atom   27 type  2   force =    -0.00000000   -0.00003182   -0.00437839
     atom   28 type  1   force =    -0.00000000    0.00012604   -0.00252181
     atom   29 type  1   force =    -0.00000000   -0.00000000    0.00260465
     atom   30 type  1   force =     0.00000004   -0.00000002   -0.00002028
     atom   31 type  2   force =    -0.00000005   -0.00000003    0.00440962
     atom   32 type  2   force =     0.00000000    0.00000000   -0.00004706
     atom   33 type  2   force =     0.00000321   -0.00000185   -0.00019718
     atom   34 type  2   force =     0.00000007    0.00000005    0.00023661
     atom   35 type  2   force =     0.00000000    0.00000000    0.00009631
     atom   36 type  2   force =    -0.00002756    0.00001590   -0.00437839
     atom   37 type  1   force =    -0.00020495    0.00034822   -0.00210238
     atom   38 type  1   force =    -0.00000021   -0.00000004    0.00260433
     atom   39 type  1   force =    -0.00000001   -0.00001333   -0.00004011
     atom   40 type  2   force =     0.00000000    0.00000005    0.00440962
     atom   41 type  2   force =    -0.00000126   -0.00000136   -0.00004817
     atom   42 type  2   force =     0.00000000    0.00003166   -0.00010214
     atom   43 type  2   force =    -0.00000000   -0.00000009    0.00023661
     atom   44 type  2   force =     0.00000352   -0.00001973    0.00009028
     atom   45 type  2   force =     0.00000001    0.00074325   -0.00396214
     atom   46 type  1   force =     0.00000001    0.00000003   -0.00207355
     atom   47 type  1   force =    -0.00000000    0.00000017    0.00260420
     atom   48 type  1   force =    -0.00001020   -0.00000589   -0.00005915
     atom   49 type  2   force =     0.00000007    0.00000018    0.00440873
     atom   50 type  2   force =     0.00000000   -0.00000113   -0.00005392
     atom   51 type  2   force =     0.00004251    0.00002454    0.00015611
     atom   52 type  2   force =     0.00000037    0.00000014    0.00023651
     atom   53 type  2   force =     0.00000000   -0.00001826    0.00008285
     atom   54 type  2   force =     0.00045002    0.00025987   -0.00373774
     atom   55 type  1   force =     0.00019910   -0.00035161   -0.00210232
     atom   56 type  1   force =     0.00000014   -0.00000009    0.00260420
     atom   57 type  1   force =    -0.00001154    0.00000666   -0.00004011
     atom   58 type  2   force =     0.00000019   -0.00000002    0.00440873
     atom   59 type  2   force =    -0.00000098    0.00000057   -0.00005392
     atom   60 type  2   force =     0.00002741   -0.00001583   -0.00010214
[...]
     atom  132 type  2   force =    -0.00002741   -0.00001583   -0.00010213
     atom  133 type  2   force =    -0.00000031    0.00000025    0.00023650
     atom  134 type  2   force =     0.00001885    0.00000682    0.00009028
     atom  135 type  2   force =    -0.00064377   -0.00037166   -0.00396196
     atom  136 type  1   force =    -0.00001979    0.00001142   -0.00253931
     atom  137 type  1   force =     0.00000014   -0.00000016    0.00260433
     atom  138 type  1   force =     0.00000241    0.00001064   -0.00002682
     atom  139 type  2   force =    -0.00000011   -0.00000015    0.00440873
     atom  140 type  2   force =     0.00000182   -0.00000041   -0.00004817
     atom  141 type  2   force =    -0.00000781    0.00000491   -0.00014573
     atom  142 type  2   force =     0.00000006   -0.00000040    0.00023651
     atom  143 type  2   force =     0.00001533    0.00001291    0.00009027
     atom  144 type  2   force =    -0.00011973   -0.00034745   -0.00424359
     atom  145 type  3   force =    -0.00000042   -0.00000095   -0.01205940
     atom  146 type  3   force =     0.00000041    0.00000093    0.00088895

     Total force =     0.001936     Total SCF correction =     0.000204
     SCF correction compared to forces is large: reduce conv_thr to get better values
     Energy error            =      5.8E-06 Ry
     Gradient error          =      7.6E-04 Ry/Bohr

     bfgs converged in   9 scf cycles and   8 bfgs steps
     (criteria: energy <  1.0E-04 Ry, force <  1.0E-03 Ry/Bohr)

     End of BFGS Geometry Optimization

     Final energy             =  -24869.0087775698 Ry

     File ./outdir/pwscf.bfgs deleted, as requested
Begin final coordinates

ATOMIC_POSITIONS (angstrom)
Mo            1.5681913218        2.7176048022        6.0895622179
Mo            1.5769197498        0.9104407117       -6.0872367793    0   0   0
Mo            0.0001726565        1.8210507389       -0.0007412342
S             0.0000044503        0.0000077495       -7.6506323570    0   0   0
S             1.5766198003        0.9108850866       -1.5669854199
S             0.0025665326        1.8225206021        4.5081286077
S             0.0000053241        0.0000068460       -4.5222282367    0   0   0
S             1.5773459341        0.9100650607        1.5654744991
S            -0.0145061261        1.8084281405        7.6494608157
Mo           -0.0162239975        5.4618917106        6.0895624448
Mo            0.0000011799        3.6417399547       -6.0872367793    0   0   0
Mo           -1.5766837896        4.5522444206       -0.0007396418
S            -1.5769141197        2.7313069925       -7.6506323570    0   0   0
S             0.0001394218        3.6418281710       -1.5660924042
S            -1.5742020678        4.5535628801        4.5081277649
S            -1.5769132459        2.7313060890       -4.5222282367    0   0   0
S             0.0010046306        3.6423267485        1.5669661873
S            -1.5949435487        4.5458210796        7.6494615247
Mo           -1.5779314733        8.1944625071        6.0792937563
Mo           -1.5769173901        6.3730391977       -6.0872367793    0   0   0
Mo           -3.1538602939        7.2833376430       -0.0021708315
S            -3.1538326896        5.4626062355       -7.6506323570    0   0   0
S            -1.5766887764        6.3725714576       -1.5669831745
S            -3.1538529722        7.2853594616        4.5106012688
S            -3.1538318159        5.4626053320       -4.5222282367    0   0   0
S            -1.5770367799        6.3736102364        1.5654732775
S            -3.1538537636        7.2819624116        7.6447344864
Mo            3.1538164873       -0.0011551738        6.0792939957
Mo           -3.1538359601        9.1043384407       -6.0872367793    0   0   0
Mo           -4.7308910500       10.0148303977       -0.0021727846
S            -4.7307512596        8.1939054785       -7.6506323570    0   0   0
S            -3.1538625989        9.1043324096       -1.5676078108
S            -4.7291235513       10.0138038329        4.5106007355
S            -4.7307503859        8.1939045750       -4.5222282367    0   0   0
S            -3.1538645355        9.1043307447        1.5644439876
S            -4.7320661699       10.0155019388        7.6447349572
Mo            4.7394381051        2.7176054488        6.0895596117
Mo            4.7307503218        0.9104407117       -6.0872367793    0   0   0
Mo            3.1538047205        1.8210055984       -0.0015786074
S             3.1538350223        0.0000077495       -7.6506323570    0   0   0
S             4.7309942169        0.9108857954       -1.5669811779
S             3.1538139591        1.8235720994        4.5186949529
S             3.1538358961        0.0000068460       -4.5222282367    0   0   0
S             4.7302654798        0.9100661451        1.5654731318
S             3.1538159154        1.8149340261        7.6520782115
Mo            3.1538118517        5.4625893567        6.1501858005
Mo            3.1538317519        3.6417399547       -6.0872367793    0   0   0
Mo            1.5772129869        4.5523544406       -0.0009143712
S             1.5769164523        2.7313069925       -7.6506323570    0   0   0
S             3.1538032572        3.6419954041       -1.5666791128
S             1.5980023834        4.5643418384        4.5619015769
S             1.5769173261        2.7313060890       -4.5222282367    0   0   0
S             3.1538014754        3.6415733982        1.5664455512
S             1.4773541085        4.4946853282        7.7055319607
Mo            1.5693942489        8.2082718917        6.0895606097
Mo            1.5769131819        6.3730391977       -6.0872367793    0   0   0
Mo            0.0000894491        7.2833966018       -0.0015802895
S            -0.0000021176        5.4626062355       -7.6506323570    0   0   0
S             1.5771133976        6.3729004886       -1.5666780052
S             0.0023294215        7.2820978896        4.5186956687
[...]
S             6.3052864346        7.2820984113        4.5186932837
S             6.3076599001        5.4626053320       -4.5222282367    0   0   0
S             7.8846393794        6.3736111720        1.5654719635
S             6.3127684138        7.2864164333        7.6520766071
Mo           -0.0016375916        0.0009283593        6.0729938991
Mo            6.3076557559        9.1043384407       -6.0872367793    0   0   0
Mo            4.7306519201       10.0145040597       -0.0007401117
S             4.7307404564        8.1939054785       -7.6506323570    0   0   0
S             6.3071026904        9.1043445421       -1.5669849135
S             4.7305726473       10.0116868882        4.5081261070
S             4.7307413301        8.1939045750       -4.5222282367    0   0   0
S             6.3081754207        9.1041246341        1.5654730277
S             4.7342366519       10.0335187486        7.6494586014
Pd            3.1538176164        5.4625953425        8.9710040467
Pd            3.1540084081        5.4630334566       11.6191996147
End final coordinates

     Writing all to output data dir ./outdir/pwscf.save/

     General routines

     Parallel routines

   This run was terminated on:  17: 4:56   4Oct2023

   JOB DONE.
Application 11264985 resources: utime ~1470682s, stime ~18592s, Rss ~2364288, inblocks ~0, outblocks ~34344592