     Program PWSCF v.7.3 starts on 10Mar2024 at  8:17: 8

     Waiting for input...
     Reading input from standard input
Warning: card &CELL ignored
Warning: card / ignored

     Current dimensions of program PWSCF are:
     Max number of different atomic species (ntypx) = 10
     Max number of k-points (npk) =  40000
     Max angular momentum in pseudopotentials (lmaxx) =  4
     file Mo.pbe-spn-kjpaw_psl.1.0.0.UPF: wavefunction(s)  4S 4D renormalized
     file S.pbe-n-kjpaw_psl.1.0.0.UPF: wavefunction(s)  3S 3P renormalized
     file Pd.pbe-spn-kjpaw_psl.1.0.0.UPF: wavefunction(s)  4S 5S 4D renormalized
     file Pt.pbe-spfn-kjpaw_psl.1.0.0.UPF: wavefunction(s)  5P 4F renormalized

     R & G space division:  proc/nbgrp/npool/nimage =      36
     Subspace diagonalization in iterative solution of the eigenvalue problem:
     one sub-group per band group will be used

     Using Slab Decomposition

     bravais-lattice index     =            0
     lattice parameter (alat)  =      23.8395  a.u.
     unit-cell volume          =   28182.8498 (a.u.)^3
     number of atoms/cell      =          146
     number of atomic types    =            4
     number of electrons       =      1298.00
     number of Kohn-Sham states=          779
     kinetic-energy cutoff     =      77.0000  Ry
     charge density cutoff     =     539.0000  Ry
     scf convergence threshold =      1.0E-06
     mixing beta               =       0.2000
     number of iterations used =            8  plain     mixing
     energy convergence thresh.=      1.0E-04
     force convergence thresh. =      1.0E-03
     Exchange-correlation= SLA  PW   PBX  PBC
                           (   1   4   3   4   0   0   0)
     nstep                     =         1000

     Effective Screening Medium Method
     Boundary Conditions: Vacuum-Slab-Vacuum
     total charge in unit cell        =   0.0000
     grid points for fit at edges     =        4

     celldm(1)=  23.839504  celldm(2)=   0.000000  celldm(3)=   0.000000
     celldm(4)=   0.000000  celldm(5)=   0.000000  celldm(6)=   0.000000

     crystal axes: (cart. coord. in units of alat)
               a(1) = (   1.000000   0.000000   0.000000 )
               a(2) = (  -0.500001   0.866026   0.000000 )
               a(3) = (   0.000000   0.000000   2.401941 )

     reciprocal axes: (cart. coord. in units 2 pi/alat)
               b(1) = (  1.000000  0.577351  0.000000 )
               b(2) = (  0.000000  1.154700  0.000000 )
               b(3) = (  0.000000  0.000000  0.416330 )

     PseudoPot. # 1 for Mo read from file:
     ./pseudo/Mo.pbe-spn-kjpaw_psl.1.0.0.UPF
     MD5 check sum: 317bf72632116215fd98f72de1686f13
     Pseudo is Projector augmented-wave + core cor, Zval = 14.0
     Generated using 'atomic' code by A. Dal Corso  v.7.2
     Shape of augmentation charge: PSQ
     Using radial grid of 1229 points,  6 beta functions with:
                l(1) =   0
                l(2) =   0
                l(3) =   1
                l(4) =   1
                l(5) =   2
                l(6) =   2
     Q(r) pseudized with 0 coefficients

     PseudoPot. # 2 for S  read from file:
     ./pseudo/S.pbe-n-kjpaw_psl.1.0.0.UPF
     MD5 check sum: 8b7b5302570d38d5e87fed6a1065abda
     Pseudo is Projector augmented-wave + core cor, Zval =  6.0
     Generated using 'atomic' code by A. Dal Corso  v.7.2
     Shape of augmentation charge: PSQ
     Using radial grid of 1151 points,  6 beta functions with:
                l(1) =   0
                l(2) =   0
                l(3) =   1
                l(4) =   1
                l(5) =   2
                l(6) =   2
     Q(r) pseudized with 0 coefficients

     PseudoPot. # 3 for Pd read from file:
     ./pseudo/Pd.pbe-spn-kjpaw_psl.1.0.0.UPF
     MD5 check sum: a60571a671f2502b8a6a4569d20a6edb
     Pseudo is Projector augmented-wave + core cor, Zval = 18.0
     Generated using 'atomic' code by A. Dal Corso  v.7.2
     Shape of augmentation charge: PSQ
     Using radial grid of 1235 points,  6 beta functions with:
                l(1) =   0
                l(2) =   0
                l(3) =   1
                l(4) =   1
                l(5) =   2
                l(6) =   2
     Q(r) pseudized with 0 coefficients

     PseudoPot. # 4 for Pt read from file:
     ./pseudo/Pt.pbe-spfn-kjpaw_psl.1.0.0.UPF
     MD5 check sum: 620096ebf4e6ebacc94de60fd67efcb5
     Pseudo is Projector augmented-wave + core cor, Zval = 32.0
     Generated using 'atomic' code by A. Dal Corso  v.7.2
     Shape of augmentation charge: PSQ
     Using radial grid of 1277 points,  8 beta functions with:
                l(1) =   0
                l(2) =   0
                l(3) =   1
                l(4) =   1
                l(5) =   2
                l(6) =   2
                l(7) =   3
                l(8) =   3
     Q(r) pseudized with 0 coefficients

     atomic species   valence    mass     pseudopotential
     Mo               14.00    95.95000     Mo( 1.00)
     S                 6.00    32.06000     S ( 1.00)
     Pd               18.00   106.42000     Pd( 1.00)
     Pt               32.00   195.08400     Pt( 1.00)

     No symmetry found

   Cartesian axes

     site n.     atom                  positions (alat units)
         1        Mo     tau(   1) = (   0.1244805   0.2154429   0.4826124  )
         2        Mo     tau(   2) = (   0.1250004   0.0721694  -0.4825273  )
         3        Mo     tau(   3) = (   0.0000154   0.1443583  -0.0000534  )
         4        S      tau(   4) = (   0.0000004   0.0000006  -0.6064556  )
         5        S      tau(   5) = (   0.1249822   0.0722030  -0.1241916  )
         6        S      tau(   6) = (   0.0001873   0.1444894   0.3573292  )
         7        S      tau(   7) = (   0.0000004   0.0000005  -0.3584711  )
         8        S      tau(   8) = (   0.1250220   0.0721432   0.1241096  )
         9        S      tau(   9) = (  -0.0009222   0.1433430   0.6062350  )
        10        Mo     tau(  10) = (  -0.0011812   0.4330952   0.4826123  )
        11        Mo     tau(  11) = (   0.0000001   0.2886759  -0.4825273  )
        12        Mo     tau(  12) = (  -0.1249761   0.3608493  -0.0000533  )
        13        S      tau(  13) = (  -0.1249999   0.2165071  -0.6064556  )
        14        S      tau(  14) = (   0.0000232   0.2886904  -0.1241345  )
        15        S      tau(  15) = (  -0.1247753   0.3609305   0.3573291  )
        16        S      tau(  16) = (  -0.1249998   0.2165070  -0.3584711  )
        17        S      tau(  17) = (   0.0000901   0.2887289   0.1242236  )
        18        S      tau(  18) = (  -0.1263226   0.3605428   0.6062351  )
        19        Mo     tau(  19) = (  -0.1251400   0.6495983   0.4819363  )
        20        Mo     tau(  20) = (  -0.1250002   0.5051824  -0.4825273  )
        21        Mo     tau(  21) = (  -0.2500026   0.5773383  -0.0001491  )
        22        S      tau(  22) = (  -0.2500002   0.4330136  -0.6064556  )
        23        S      tau(  23) = (  -0.1249812   0.5051509  -0.1241919  )
        24        S      tau(  24) = (  -0.2500015   0.5775831   0.3575295  )
        25        S      tau(  25) = (  -0.2500001   0.4330135  -0.3584711  )
        26        S      tau(  26) = (  -0.1250129   0.5052153   0.1241101  )
        27        S      tau(  27) = (  -0.2500018   0.5771934   0.6060379  )
        28        Mo     tau(  28) = (   0.2499987  -0.0001601   0.4819365  )
        29        Mo     tau(  29) = (  -0.2500004   0.7216889  -0.4825273  )
        30        Mo     tau(  30) = (  -0.3750135   0.7938631  -0.0001491  )
        31        S      tau(  31) = (  -0.3750004   0.6495201  -0.6064556  )
        32        S      tau(  32) = (  -0.2500026   0.7216883  -0.1242347  )
        33        S      tau(  33) = (  -0.3747997   0.7937400   0.3575295  )
        34        S      tau(  34) = (  -0.3750004   0.6495200  -0.3584711  )
        35        S      tau(  35) = (  -0.2500029   0.7216883   0.1240299  )
        36        S      tau(  36) = (  -0.3751376   0.7939346   0.6060379  )
        37        Mo     tau(  37) = (   0.3755166   0.2154425   0.4826119  )
        38        Mo     tau(  38) = (   0.3750004   0.0721694  -0.4825273  )
        39        Mo     tau(  39) = (   0.2499990   0.1443474  -0.0000968  )
        40        S      tau(  40) = (   0.2500004   0.0000006  -0.6064556  )
        41        S      tau(  41) = (   0.3750152   0.0722028  -0.1241921  )
        42        S      tau(  42) = (   0.2499983   0.1443201   0.3580593  )
        43        S      tau(  43) = (   0.2500004   0.0000005  -0.3584711  )
        44        S      tau(  44) = (   0.3749754   0.0721432   0.1241106  )
        45        S      tau(  45) = (   0.2499987   0.1437775   0.6065499  )
        46        Mo     tau(  46) = (   0.2499984   0.4330123   0.4872880  )
        47        Mo     tau(  47) = (   0.2500001   0.2886759  -0.4825273  )
        48        Mo     tau(  48) = (   0.1250277   0.3608616  -0.0000572  )
        49        S      tau(  49) = (   0.1250001   0.2165071  -0.6064556  )
        50        S      tau(  50) = (   0.2499987   0.2886898  -0.1241693  )
        51        S      tau(  51) = (   0.1266397   0.3617911   0.3615924  )
        52        S      tau(  52) = (   0.1250002   0.2165070  -0.3584711  )
        53        S      tau(  53) = (   0.2499988   0.2886671   0.1241958  )
        54        S      tau(  54) = (   0.1173054   0.3564020   0.6108885  )
        55        Mo     tau(  55) = (   0.1243363   0.6504991   0.4826116  )
        56        Mo     tau(  56) = (   0.1249998   0.5051824  -0.4825273  )
        57        Mo     tau(  57) = (   0.0000060   0.5773464  -0.0000969  )
        58        S      tau(  58) = (  -0.0000002   0.4330136  -0.6064556  )
        59        S      tau(  59) = (   0.1250101   0.5051751  -0.1241696  )
        60        S      tau(  60) = (  -0.0000165   0.5773581   0.3580590  )
[...]
       132        S      tau( 132) = (   0.5000130   0.5773585   0.3580587  )
       133        S      tau( 133) = (   0.4999999   0.4330135  -0.3584711  )
       134        S      tau( 134) = (   0.6250081   0.5052147   0.1241104  )
       135        S      tau( 135) = (   0.5004826   0.5776298   0.6065487  )
       136        Mo     tau( 136) = (  -0.0000706   0.0000401   0.4813070  )
       137        Mo     tau( 137) = (   0.4999996   0.7216889  -0.4825273  )
       138        Mo     tau( 138) = (   0.3749881   0.7938314  -0.0000535  )
       139        S      tau( 139) = (   0.3749996   0.6495201  -0.6064556  )
       140        S      tau( 140) = (   0.4999594   0.7216844  -0.1241918  )
       141        S      tau( 141) = (   0.3749610   0.7936184   0.3573285  )
       142        S      tau( 142) = (   0.3749996   0.6495200  -0.3584711  )
       143        S      tau( 143) = (   0.5000310   0.7216802   0.1241101  )
       144        S      tau( 144) = (   0.3753979   0.7951517   0.6062337  )
       145        Pd     tau( 145) = (   0.2499985   0.4330123   0.7148096  )
       146        Pt     tau( 146) = (  -0.2500134   0.4329656   0.7249121  )

     DFT-D3 Dispersion Correction (3-body terms):
       Reference C6 values for interpolation:

[...]
   -40.5480 -40.5371 -40.5370 -40.5240 -40.5227 -40.5202 -40.5202 -40.5185
   -40.5174 -40.4898 -40.4897 -40.4882 -40.4845 -40.4805 -40.4752 -40.4719
   -40.4633 -40.4541 -40.4484 -40.4289 -40.4200 -40.4047 -40.3965 -19.8312
   -19.8240 -19.7648 -19.7398 -19.6259 -19.6135 -19.3912 -19.3900 -19.3232
   -19.3194 -19.1976 -19.1961 -18.8089 -18.7729 -18.7381 -18.6931 -18.6774
   -18.6762 -18.6691 -18.6684 -18.6328 -18.6049 -18.5795 -18.5616 -18.5468
   -18.5420 -18.5192 -18.5156 -18.4883 -18.4871 -18.4288 -18.4283 -18.4025
   -18.3916 -18.3801 -18.3648 -18.3455 -18.3406 -18.3068 -18.2965 -18.2397
   -18.2127 -18.1896 -18.1876 -18.1651 -18.1606 -18.1162 -18.1058 -18.0978
   -18.0834 -18.0631 -18.0630 -18.0630 -18.0629 -18.0454 -18.0429 -18.0185
   -18.0159 -17.9922 -17.9905 -17.9844 -17.9831 -17.9773 -17.9743 -17.9510
   -17.9461 -17.9325 -17.9311 -17.9146 -17.9126 -17.8839 -17.8832 -17.8744
   -17.8742 -17.8674 -17.8649 -17.8206 -17.8191 -17.8071 -17.8059 -17.7996
   -17.7996 -17.7568 -17.7563 -17.7406 -17.7401 -17.7376 -17.7355 -17.7233
   -17.7232 -17.7081 -17.7061 -17.6799 -17.6798 -17.6221 -17.6206 -11.8225
   -11.6546 -11.6063 -11.5872 -11.5030 -11.4284 -11.4131 -11.4098 -11.4068
   -11.3975 -11.3896 -11.3804 -11.3553 -11.3360 -11.3165 -11.3080 -11.3007
   -11.2940 -11.2935 -11.2740 -11.2441 -11.2337 -11.2214 -11.2192 -11.1924
   -11.1924 -11.1899 -11.1694 -11.1465 -11.1464 -11.0951 -11.0913 -11.0880
   -11.0876 -11.0038 -10.9659 -10.9417 -10.9374 -10.9208 -10.9173 -10.9064
   -10.8726 -10.8563 -10.8498 -10.8380 -10.8317 -10.8227 -10.8111 -10.7998
   -10.7828 -10.7742 -10.7713 -10.7665 -10.7655 -10.7641 -10.7629 -10.7550
   -10.7390 -10.7344 -10.7081 -10.6974 -10.6947 -10.6915 -10.6703 -10.5445
   -10.5354 -10.5106 -10.4787 -10.4372 -10.4237 -10.3676 -10.3136 -10.2673
   -10.2404 -10.1647 -10.1120 -10.0708 -10.0633 -10.0545 -10.0478 -10.0152
    -9.9937  -9.9599  -9.9572  -9.9117  -9.9095  -9.8820  -9.8753  -9.8696
    -9.8676  -9.8594  -9.8553  -9.8357  -9.8305  -9.8189  -9.8149  -9.7604
    -9.7587  -9.7229  -9.7014  -9.6979  -9.6952  -9.6729  -9.6670  -9.6574
    -9.6502  -9.6362  -9.6346  -9.6251  -9.6068  -9.5949  -9.5801  -9.5624
    -9.5602  -9.5525  -9.5501  -9.4958  -9.4837  -9.4725  -9.4656  -9.4628
    -9.4502  -9.4167  -9.4053  -9.4050  -9.3955  -9.3139  -9.2895  -9.2785
    -9.2780  -9.1918  -9.1611  -9.1504  -9.1383  -9.1170  -9.0923  -9.0901
    -9.0834  -9.0733  -9.0659  -9.0474  -9.0413  -8.9996  -8.9904  -8.9809
    -8.9715  -8.9673  -8.9620  -8.9417  -8.9321  -8.9246  -8.9231  -8.9153
    -8.9097  -8.8928  -8.8872  -8.8723  -8.8708  -8.8674  -8.8609  -8.8397
    -8.8320  -8.8111  -8.8097  -8.7933  -8.7918  -8.7902  -8.7872  -8.7756
    -8.7750  -8.7692  -8.7660  -8.7589  -8.7557  -8.7461  -8.7383  -8.7023
[...]
    -3.6881  -3.6672  -3.6364  -3.5645  -3.5369  -3.5321  -3.5319  -3.5282
    -3.5149  -3.5148  -3.5121  -3.4980  -3.4868  -3.4684  -3.4503  -3.4369
    -3.4365  -3.4221  -3.4178  -3.4070  -3.4052  -3.4013  -3.3994  -3.3621
    -3.3575  -3.3453  -3.3288  -3.2961  -3.2939  -3.2840  -3.2822  -3.2793
    -3.2639  -3.2501  -3.2466  -3.2451  -3.2422  -3.2113  -3.2074  -3.2059
    -3.2055  -3.2040  -3.2000  -3.1784  -3.1755  -3.1660  -3.1648  -3.1466
    -3.1426  -3.1329  -3.1285  -3.1252  -3.1194  -3.0960  -3.0909  -3.0556
    -3.0470  -3.0282  -3.0192  -3.0015  -3.0009  -2.9747  -2.9694  -2.9599
    -2.9593  -2.9432  -2.9427  -2.9423  -2.9419  -2.9066  -2.9044  -2.8941
    -2.8931  -2.8702  -2.8664  -2.8637  -2.8558  -2.8538  -2.8523  -2.8427
    -2.8325  -2.8285  -2.8206  -2.8156  -2.8110  -2.7811  -2.7728  -2.7691
    -2.7591  -2.7541  -2.7465  -2.7354  -2.7296  -2.6807  -2.6777  -2.6466
    -2.6449  -2.5969  -2.5856  -2.5785  -2.5747  -2.5643  -2.5632  -2.4984
    -2.4947  -2.4489  -2.4428  -2.4326  -2.4305  -2.4135  -2.4006  -2.3234
    -2.3100  -2.2692  -2.2439

     the Fermi energy is    -4.6046 ev

!    total energy              =  -26031.79296665 Ry
     total all-electron energy =   -512284.362594 Ry
     estimated scf accuracy    <          5.3E-09 Ry
     smearing contrib. (-TS)   =      -0.00000003 Ry
     internal energy E=F+TS    =  -26031.79296662 Ry

     The total energy is F=E-TS. E is the sum of the following terms:
     one-electron contribution =  491305.17038497 Ry
     hartree contribution      = -245791.91308135 Ry
     xc contribution           =   -1534.68682115 Ry
     ewald contribution        = -253817.59893868 Ry
     DFT-D3 Dispersion         =      -4.02192044 Ry
     one-center paw contrib.   =  -16188.74258999 Ry

     convergence has been achieved in  12 iterations

     negative rho (up, down):  9.197E-04 0.000E+00

     Forces acting on atoms (cartesian axes, Ry/au):

     atom    1 type  1   force =     0.00004160   -0.00001469   -0.00033985
     atom    2 type  1   force =    -0.00000332   -0.00000138    0.00190108
     atom    3 type  1   force =     0.00001062   -0.00002910    0.00001063
     atom    4 type  2   force =     0.00000032   -0.00000106   -0.00327996
     atom    5 type  2   force =     0.00002720    0.00001824    0.00004463
     atom    6 type  2   force =    -0.00033437    0.00006662    0.00028872
     atom    7 type  2   force =    -0.00000622   -0.00000199    0.00148564
     atom    8 type  2   force =    -0.00002271   -0.00001248    0.00008425
     atom    9 type  2   force =     0.00009481    0.00001911   -0.00026647
     atom   10 type  1   force =    -0.00045290   -0.00030280    0.00031134
     atom   11 type  1   force =    -0.00000203   -0.00000164    0.00189502
     atom   12 type  1   force =    -0.00000051   -0.00000157    0.00000629
     atom   13 type  2   force =     0.00000025   -0.00000094   -0.00327899
     atom   14 type  2   force =     0.00001273   -0.00000901   -0.00001087
     atom   15 type  2   force =     0.00000073    0.00007329   -0.00052838
     atom   16 type  2   force =    -0.00000087    0.00000392    0.00150548
     atom   17 type  2   force =     0.00006398   -0.00004119   -0.00007436
     atom   18 type  2   force =    -0.00008686   -0.00008055   -0.00007768
     atom   19 type  1   force =    -0.00040676   -0.00021787    0.00022710
     atom   20 type  1   force =    -0.00000189   -0.00000273    0.00189787
     atom   21 type  1   force =     0.00000118   -0.00000215    0.00000040
     atom   22 type  2   force =     0.00000027   -0.00000096   -0.00327966
     atom   23 type  2   force =     0.00001427    0.00000452    0.00002499
     atom   24 type  2   force =    -0.00000325   -0.00024721   -0.00048652
     atom   25 type  2   force =    -0.00000020   -0.00000311    0.00149343
     atom   26 type  2   force =    -0.00002157   -0.00000955    0.00002300
     atom   27 type  2   force =    -0.00000217    0.00040330   -0.00019312
     atom   28 type  1   force =    -0.00000045    0.00008167   -0.00041549
     atom   29 type  1   force =    -0.00000016   -0.00000172    0.00190233
     atom   30 type  1   force =    -0.00001200    0.00002357   -0.00000146
     atom   31 type  2   force =     0.00000055   -0.00000084   -0.00327840
     atom   32 type  2   force =    -0.00000002    0.00001782   -0.00001887
     atom   33 type  2   force =    -0.00015558   -0.00038692    0.00027053
     atom   34 type  2   force =    -0.00000182   -0.00000721    0.00149503
     atom   35 type  2   force =     0.00000010    0.00007798   -0.00007887
     atom   36 type  2   force =     0.00017995    0.00006722   -0.00026816
     atom   37 type  1   force =    -0.00004433   -0.00001555   -0.00034177
     atom   38 type  1   force =     0.00000280   -0.00000135    0.00190109
     atom   39 type  1   force =     0.00000000   -0.00000321    0.00008688
     atom   40 type  2   force =     0.00000020   -0.00000119   -0.00327840
     atom   41 type  2   force =    -0.00002757    0.00001792    0.00004488
     atom   42 type  2   force =    -0.00000181    0.00010128   -0.00029143
     atom   43 type  2   force =    -0.00000023    0.00000465    0.00150629
     atom   44 type  2   force =     0.00002238   -0.00001297    0.00008355
     atom   45 type  2   force =    -0.00000098   -0.00000499   -0.00070922
     atom   46 type  1   force =     0.00000017    0.00014587    0.00009533
     atom   47 type  1   force =    -0.00000025    0.00000168    0.00189681
     atom   48 type  1   force =     0.00002426   -0.00000695    0.00000945
     atom   49 type  2   force =     0.00000005   -0.00000131   -0.00327900
     atom   50 type  2   force =    -0.00000054   -0.00003490    0.00004672
     atom   51 type  2   force =    -0.00016248    0.00027742    0.00027091
     atom   52 type  2   force =    -0.00000219    0.00000656    0.00150268
     atom   53 type  2   force =    -0.00000053    0.00001798    0.00008273
     atom   54 type  2   force =    -0.00003434   -0.00024928   -0.00017031
     atom   55 type  1   force =    -0.00013293    0.00005213   -0.00031499
     atom   56 type  1   force =     0.00000120   -0.00000249    0.00189503
     atom   57 type  1   force =    -0.00002232   -0.00001164    0.00000033
     atom   58 type  2   force =    -0.00000016   -0.00000117   -0.00327884
     atom   59 type  2   force =    -0.00002225   -0.00000649   -0.00001405
     atom   60 type  2   force =    -0.00078233   -0.00047408    0.00085658
[...]
     atom  132 type  2   force =     0.00077827   -0.00047945    0.00085943
     atom  133 type  2   force =    -0.00000125   -0.00000702    0.00149327
     atom  134 type  2   force =     0.00002185   -0.00000972    0.00002363
     atom  135 type  2   force =    -0.00005601    0.00002938    0.00019907
     atom  136 type  1   force =    -0.00010144   -0.00007481    0.00003237
     atom  137 type  1   force =    -0.00000048    0.00000103    0.00189929
     atom  138 type  1   force =    -0.00001307   -0.00000950   -0.00003865
     atom  139 type  2   force =     0.00000058   -0.00000076   -0.00327882
     atom  140 type  2   force =     0.00001137   -0.00002062   -0.00001604
     atom  141 type  2   force =     0.00048650    0.00019382   -0.00027584
     atom  142 type  2   force =    -0.00000455   -0.00000511    0.00149521
     atom  143 type  2   force =    -0.00002308    0.00001196   -0.00002363
     atom  144 type  2   force =    -0.00004982   -0.00001706   -0.00013997
     atom  145 type  3   force =    -0.00000190   -0.00000885   -0.00066786
     atom  146 type  4   force =    -0.00002763   -0.00023901   -0.00042770

     Total force =     0.003745     Total SCF correction =     0.000213
     Energy error            =      4.5E-05 Ry
     Gradient error          =      9.2E-04 Ry/Bohr

     bfgs converged in  17 scf cycles and  16 bfgs steps
     (criteria: energy <  1.0E-04 Ry, force <  1.0E-03 Ry/Bohr)

     End of BFGS Geometry Optimization

     Final energy             =  -26031.7929666537 Ry

     File ./outdir/pwscf.bfgs deleted, as requested
Begin final coordinates

ATOMIC_POSITIONS (angstrom)
Mo               1.5726428562        2.7169076231        6.0776241967
Mo               1.5769197498        0.9104407117       -6.0872367793    0   0   0
Mo              -0.0000361226        1.8213860643       -0.0000191497
S                0.0000044503        0.0000077495       -7.6506323570    0   0   0
S                1.5762071859        0.9107189735       -1.5666880904
S                0.0012286398        1.8245061166        4.4949901113
S                0.0000053241        0.0000068460       -4.5222282367    0   0   0
S                1.5775424437        0.9100249279        1.5651556840
S                0.0011694671        1.7940029465        7.6420991896
Mo               0.0051486154        5.4651992272        6.0923995930
Mo               0.0000011799        3.6417399547       -6.0872367793    0   0   0
Mo              -1.5770569243        4.5524292894        0.0000383169
S               -1.5769141197        2.7313069925       -7.6506323570    0   0   0
S               -0.0002618471        3.6420026420       -1.5653152668
S               -1.5990056287        4.5667638789        4.5574032966
S               -1.5769132459        2.7313060890       -4.5222282367    0   0   0
S               -0.0001931520        3.6431467882        1.5684490969
S               -1.4634110991        4.4712454238        7.7200594729
Mo              -1.5645654087        8.2087789941        6.0848787425
Mo              -1.5769173901        6.3730391977       -6.0872367793    0   0   0
Mo              -3.1538567356        7.2828798337       -0.0015568633
S               -3.1538326896        5.4626062355       -7.6506323570    0   0   0
S               -1.5768326904        6.3723755878       -1.5665870682
S               -3.1538525789        7.2595455274        4.5610630797
S               -3.1538318159        5.4626053320       -4.5222282367    0   0   0
S               -1.5770814704        6.3736265788        1.5666930482
S               -3.1538691384        7.4400409213        7.7228140439
Mo               3.1538181465       -0.0010533565        6.0695534704
Mo              -3.1538359601        9.1043384407       -6.0872367793    0   0   0
Mo              -4.7307033101       10.0144321021       -0.0016857989
S               -4.7307512596        8.1939054785       -7.6506323570    0   0   0
S               -3.1538570987        9.1038535668       -1.5670377041
S               -4.7278672866       10.0106712357        4.4978324119
S               -4.7307503859        8.1939045750       -4.5222282367    0   0   0
S               -3.1538587791        9.1028302788        1.5656370063
S               -4.7405338158       10.0350807516        7.6396379195
Mo               4.7349709326        2.7168994435        6.0775995971
Mo               4.7307503218        0.9104407117       -6.0872367793    0   0   0
Mo               3.1538132400        1.8209540694       -0.0019410027
S                3.1538350223        0.0000077495       -7.6506323570    0   0   0
S                4.7314210635        0.9107197795       -1.5666883452
S                3.1538032410        1.8201232039        4.5055392023
S                3.1538358961        0.0000068460       -4.5222282367    0   0   0
S                4.7300840089        0.9100263248        1.5651567399
S                3.1538212041        1.8131976326        7.6423617084
Mo               3.1537863891        5.4612357563        6.1335501611
Mo               3.1538317519        3.6417399547       -6.0872367793    0   0   0
Mo               1.5768264321        4.5523556499       -0.0002916613
S                1.5769164523        2.7313069925       -7.6506323570    0   0   0
S                3.1538121718        3.6423684213       -1.5663697940
S                1.5966670866        4.5637655581        4.5475858651
S                1.5769173261        2.7313060890       -4.5222282367    0   0   0
S                3.1538112889        3.6413348285        1.5662058269
S                1.5038859668        4.4928832007        7.6981969318
Mo               1.5711628678        8.2061936064        6.0869892689
Mo               1.5769131819        6.3730391977       -6.0872367793    0   0   0
Mo              -0.0000360033        7.2832791378       -0.0012638277
S               -0.0000021176        5.4626062355       -7.6506323570    0   0   0
S                1.5768571655        6.3725621482       -1.5665465360
S                0.0032728416        7.2826845995        4.5152395736
[...]
S                6.3043502819        7.2827107787        4.5152086183
S                6.3076599001        5.4626053320       -4.5222282367    0   0   0
S                7.8846934098        6.3736261986        1.5666926791
S                6.3068144644        7.2876048756        7.6511962901
Mo               0.0000883134        0.0013419831        6.0580792359
Mo               6.3076557559        9.1043384407       -6.0872367793    0   0   0
Mo               4.7308087663       10.0145612601       -0.0011165585
S                4.7307404564        8.1939054785       -7.6506323570    0   0   0
S                6.3074406494        9.1042421743       -1.5668849068
S                4.7264776468       10.0077814236        4.5009287655
S                4.7307413301        8.1939045750       -4.5222282367    0   0   0
S                6.3079179143        9.1040286260        1.5653382890
S                4.7376891118       10.0322244108        7.6409700757
Pd               3.1537998860        5.4729147589        9.0247174138
Pt              -3.1538626813        5.4779479909        8.8867318752
End final coordinates

     Writing all to output data dir ./outdir/pwscf.save/ :
     XML data file, charge density, pseudopotentials, collected wavefunctions

     General routines

     Parallel routines

   This run was terminated on:   6:58: 0  11Mar2024

   JOB DONE.