     Program PWSCF v.7.3 starts on  8Mar2024 at 17:49: 8

     Waiting for input...
     Reading input from standard input
Warning: card &CELL ignored
Warning: card / ignored

     Current dimensions of program PWSCF are:
     Max number of different atomic species (ntypx) = 10
     Max number of k-points (npk) =  40000
     Max angular momentum in pseudopotentials (lmaxx) =  4
     file Mo.pbe-spn-kjpaw_psl.1.0.0.UPF: wavefunction(s)  4S 4D renormalized
     file S.pbe-n-kjpaw_psl.1.0.0.UPF: wavefunction(s)  3S 3P renormalized
     file Pt.pbe-spfn-kjpaw_psl.1.0.0.UPF: wavefunction(s)  5P 4F renormalized
     file Pd.pbe-spn-kjpaw_psl.1.0.0.UPF: wavefunction(s)  4S 5S 4D renormalized

     R & G space division:  proc/nbgrp/npool/nimage =      36
     Subspace diagonalization in iterative solution of the eigenvalue problem:
     one sub-group per band group will be used

     Using Slab Decomposition

     bravais-lattice index     =            0
     lattice parameter (alat)  =      23.8395  a.u.
     unit-cell volume          =   28182.8498 (a.u.)^3
     number of atoms/cell      =          146
     number of atomic types    =            4
     number of electrons       =      1298.00
     number of Kohn-Sham states=          779
     kinetic-energy cutoff     =      77.0000  Ry
     charge density cutoff     =     539.0000  Ry
     scf convergence threshold =      1.0E-06
     mixing beta               =       0.2000
     number of iterations used =            8  plain     mixing
     energy convergence thresh.=      1.0E-04
     force convergence thresh. =      1.0E-03
     Exchange-correlation= SLA  PW   PBX  PBC
                           (   1   4   3   4   0   0   0)
     nstep                     =         1000

     Effective Screening Medium Method
     Boundary Conditions: Vacuum-Slab-Vacuum
     total charge in unit cell        =   0.0000
     grid points for fit at edges     =        4

     celldm(1)=  23.839504  celldm(2)=   0.000000  celldm(3)=   0.000000
     celldm(4)=   0.000000  celldm(5)=   0.000000  celldm(6)=   0.000000

     crystal axes: (cart. coord. in units of alat)
               a(1) = (   1.000000   0.000000   0.000000 )
               a(2) = (  -0.500001   0.866026   0.000000 )
               a(3) = (   0.000000   0.000000   2.401941 )

     reciprocal axes: (cart. coord. in units 2 pi/alat)
               b(1) = (  1.000000  0.577351  0.000000 )
               b(2) = (  0.000000  1.154700  0.000000 )
               b(3) = (  0.000000  0.000000  0.416330 )

     PseudoPot. # 1 for Mo read from file:
     ./pseudo/Mo.pbe-spn-kjpaw_psl.1.0.0.UPF
     MD5 check sum: 317bf72632116215fd98f72de1686f13
     Pseudo is Projector augmented-wave + core cor, Zval = 14.0
     Generated using 'atomic' code by A. Dal Corso  v.7.2
     Shape of augmentation charge: PSQ
     Using radial grid of 1229 points,  6 beta functions with:
                l(1) =   0
                l(2) =   0
                l(3) =   1
                l(4) =   1
                l(5) =   2
                l(6) =   2
     Q(r) pseudized with 0 coefficients

     PseudoPot. # 2 for S  read from file:
     ./pseudo/S.pbe-n-kjpaw_psl.1.0.0.UPF
     MD5 check sum: 8b7b5302570d38d5e87fed6a1065abda
     Pseudo is Projector augmented-wave + core cor, Zval =  6.0
     Generated using 'atomic' code by A. Dal Corso  v.7.2
     Shape of augmentation charge: PSQ
     Using radial grid of 1151 points,  6 beta functions with:
                l(1) =   0
                l(2) =   0
                l(3) =   1
                l(4) =   1
                l(5) =   2
                l(6) =   2
     Q(r) pseudized with 0 coefficients

     PseudoPot. # 3 for Pt read from file:
     ./pseudo/Pt.pbe-spfn-kjpaw_psl.1.0.0.UPF
     MD5 check sum: 620096ebf4e6ebacc94de60fd67efcb5
     Pseudo is Projector augmented-wave + core cor, Zval = 32.0
     Generated using 'atomic' code by A. Dal Corso  v.7.2
     Shape of augmentation charge: PSQ
     Using radial grid of 1277 points,  8 beta functions with:
                l(1) =   0
                l(2) =   0
                l(3) =   1
                l(4) =   1
                l(5) =   2
                l(6) =   2
                l(7) =   3
                l(8) =   3
     Q(r) pseudized with 0 coefficients

     PseudoPot. # 4 for Pd read from file:
     ./pseudo/Pd.pbe-spn-kjpaw_psl.1.0.0.UPF
     MD5 check sum: a60571a671f2502b8a6a4569d20a6edb
     Pseudo is Projector augmented-wave + core cor, Zval = 18.0
     Generated using 'atomic' code by A. Dal Corso  v.7.2
     Shape of augmentation charge: PSQ
     Using radial grid of 1235 points,  6 beta functions with:
                l(1) =   0
                l(2) =   0
                l(3) =   1
                l(4) =   1
                l(5) =   2
                l(6) =   2
     Q(r) pseudized with 0 coefficients

     atomic species   valence    mass     pseudopotential
     Mo               14.00    95.95000     Mo( 1.00)
     S                 6.00    32.06000     S ( 1.00)
     Pt               32.00   195.08400     Pt( 1.00)
     Pd               18.00   106.42000     Pd( 1.00)

     No symmetry found

   Cartesian axes

     site n.     atom                  positions (alat units)
         1        Mo     tau(   1) = (   0.1245066   0.2151403   0.4829270  )
         2        Mo     tau(   2) = (   0.1250004   0.0721694  -0.4825273  )
         3        Mo     tau(   3) = (   0.0000143   0.1443586  -0.0000404  )
         4        S      tau(   4) = (   0.0000004   0.0000006  -0.6064556  )
         5        S      tau(   5) = (   0.1249859   0.0722111  -0.1241825  )
         6        S      tau(   6) = (   0.0002990   0.1445714   0.3572522  )
         7        S      tau(   7) = (   0.0000004   0.0000005  -0.3584711  )
         8        S      tau(   8) = (   0.1250243   0.0721377   0.1241202  )
         9        S      tau(   9) = (  -0.0011552   0.1430195   0.6061730  )
        10        Mo     tau(  10) = (  -0.0014303   0.4332690   0.4829269  )
        11        Mo     tau(  11) = (   0.0000001   0.2886759  -0.4825273  )
        12        Mo     tau(  12) = (  -0.1249759   0.3608474  -0.0000404  )
        13        S      tau(  13) = (  -0.1249999   0.2165071  -0.6064556  )
        14        S      tau(  14) = (   0.0000250   0.2886908  -0.1241273  )
        15        S      tau(  15) = (  -0.1246483   0.3609863   0.3572522  )
        16        S      tau(  16) = (  -0.1249998   0.2165070  -0.3584711  )
        17        S      tau(  17) = (   0.0000923   0.2887297   0.1242244  )
        18        S      tau(  18) = (  -0.1267194   0.3605027   0.6061730  )
        19        Mo     tau(  19) = (  -0.1251617   0.6496109   0.4820319  )
        20        Mo     tau(  20) = (  -0.1250002   0.5051824  -0.4825273  )
        21        Mo     tau(  21) = (  -0.2500022   0.5773395  -0.0001503  )
        22        S      tau(  22) = (  -0.2500002   0.4330136  -0.6064556  )
        23        S      tau(  23) = (  -0.1249718   0.5051500  -0.1241823  )
        24        S      tau(  24) = (  -0.2500018   0.5776353   0.3574746  )
        25        S      tau(  25) = (  -0.2500001   0.4330135  -0.3584711  )
        26        S      tau(  26) = (  -0.1250162   0.5052198   0.1241203  )
        27        S      tau(  27) = (  -0.2500018   0.5771316   0.6060170  )
        28        Mo     tau(  28) = (   0.2499988  -0.0001852   0.4820322  )
        29        Mo     tau(  29) = (  -0.2500004   0.7216889  -0.4825273  )
        30        Mo     tau(  30) = (  -0.3750121   0.7938628  -0.0001504  )
        31        S      tau(  31) = (  -0.3750004   0.6495201  -0.6064556  )
        32        S      tau(  32) = (  -0.2500022   0.7216884  -0.1242395  )
        33        S      tau(  33) = (  -0.3747547   0.7937137   0.3574746  )
        34        S      tau(  34) = (  -0.3750004   0.6495200  -0.3584711  )
        35        S      tau(  35) = (  -0.2500023   0.7216883   0.1240244  )
        36        S      tau(  36) = (  -0.3751912   0.7939655   0.6060169  )
        37        Mo     tau(  37) = (   0.3754907   0.2151405   0.4829271  )
        38        Mo     tau(  38) = (   0.3750004   0.0721694  -0.4825273  )
        39        Mo     tau(  39) = (   0.2499984   0.1443573  -0.0000731  )
        40        S      tau(  40) = (   0.2500004   0.0000006  -0.6064556  )
        41        S      tau(  41) = (   0.3750112   0.0722112  -0.1241824  )
        42        S      tau(  42) = (   0.2499987   0.1444686   0.3583292  )
        43        S      tau(  43) = (   0.2500004   0.0000005  -0.3584711  )
        44        S      tau(  44) = (   0.3749727   0.0721378   0.1241202  )
        45        S      tau(  45) = (   0.2499989   0.1436262   0.6067914  )
        46        Mo     tau(  46) = (   0.2499982   0.4330120   0.4873213  )
        47        Mo     tau(  47) = (   0.2500001   0.2886759  -0.4825273  )
        48        Mo     tau(  48) = (   0.1250313   0.3608632  -0.0000369  )
        49        S      tau(  49) = (   0.1250001   0.2165071  -0.6064556  )
        50        S      tau(  50) = (   0.2499984   0.2886902  -0.1241509  )
        51        S      tau(  51) = (   0.1269276   0.3619573   0.3622727  )
        52        S      tau(  52) = (   0.1250002   0.2165070  -0.3584711  )
        53        S      tau(  53) = (   0.2499983   0.2886817   0.1242427  )
        54        S      tau(  54) = (   0.1143670   0.3547054   0.6129634  )
        55        Mo     tau(  55) = (   0.1240620   0.6506275   0.4829270  )
        56        Mo     tau(  56) = (   0.1249998   0.5051824  -0.4825273  )
        57        Mo     tau(  57) = (   0.0000150   0.5773409  -0.0000731  )
        58        S      tau(  58) = (  -0.0000002   0.4330136  -0.6064556  )
        59        S      tau(  59) = (   0.1250108   0.5051746  -0.1241509  )
        60        S      tau(  60) = (   0.0001121   0.5772840   0.3583290  )
[...]
       132        S      tau( 132) = (   0.4998845   0.5772841   0.3583289  )
       133        S      tau( 133) = (   0.4999999   0.4330135  -0.3584711  )
       134        S      tau( 134) = (   0.6250119   0.5052197   0.1241202  )
       135        S      tau( 135) = (   0.5006138   0.5777054   0.6067911  )
       136        Mo     tau( 136) = (  -0.0000756   0.0000425   0.4811258  )
       137        Mo     tau( 137) = (   0.4999996   0.7216889  -0.4825273  )
       138        Mo     tau( 138) = (   0.3749875   0.7938333  -0.0000404  )
       139        S      tau( 139) = (   0.3749996   0.6495201  -0.6064556  )
       140        S      tau( 140) = (   0.4999549   0.7216781  -0.1241825  )
       141        S      tau( 141) = (   0.3749453   0.7934797   0.3572516  )
       142        S      tau( 142) = (   0.3749996   0.6495200  -0.3584711  )
       143        S      tau( 143) = (   0.5000375   0.7216816   0.1241203  )
       144        S      tau( 144) = (   0.3755618   0.7955149   0.6061729  )
       145        Pt     tau( 145) = (   0.2499972   0.4330095   0.7045710  )
       146        Pd     tau( 146) = (  -0.3748616   0.6496069   0.7328390  )

     DFT-D3 Dispersion Correction (3-body terms):
       Reference C6 values for interpolation:

[...]
   -40.5158 -40.4935 -40.4928 -40.4926 -40.4869 -40.4844 -40.4804 -40.4788
   -40.4615 -40.4585 -40.4507 -40.4364 -40.4279 -40.4134 -40.3935 -19.8389
   -19.8242 -19.7768 -19.7261 -19.6309 -19.6046 -19.3947 -19.3931 -19.3284
   -19.3236 -19.2013 -19.1994 -18.7936 -18.7690 -18.7434 -18.6905 -18.6837
   -18.6796 -18.6721 -18.6697 -18.6486 -18.6141 -18.5872 -18.5620 -18.5493
   -18.5447 -18.5368 -18.5209 -18.4910 -18.4819 -18.4340 -18.4307 -18.4148
   -18.3981 -18.3831 -18.3577 -18.3491 -18.3367 -18.3114 -18.2652 -18.2432
   -18.2262 -18.2166 -18.1819 -18.1728 -18.1594 -18.1353 -18.1066 -18.0937
   -18.0782 -18.0660 -18.0659 -18.0657 -18.0656 -18.0525 -18.0517 -18.0302
   -18.0134 -17.9952 -17.9910 -17.9881 -17.9839 -17.9797 -17.9736 -17.9538
   -17.9487 -17.9313 -17.9304 -17.9253 -17.9125 -17.8881 -17.8844 -17.8791
   -17.8761 -17.8681 -17.8631 -17.8249 -17.8203 -17.8104 -17.8040 -17.8025
   -17.8025 -17.7645 -17.7561 -17.7526 -17.7426 -17.7424 -17.7321 -17.7264
   -17.7256 -17.7222 -17.7096 -17.6839 -17.6822 -17.6316 -17.6186 -11.7866
   -11.6276 -11.6112 -11.5589 -11.5115 -11.4236 -11.4147 -11.4100 -11.4094
   -11.3987 -11.3900 -11.3821 -11.3483 -11.3338 -11.3210 -11.3140 -11.3089
   -11.2961 -11.2861 -11.2643 -11.2606 -11.2434 -11.2290 -11.2203 -11.2060
   -11.1954 -11.1954 -11.1798 -11.1494 -11.1493 -11.1026 -11.0944 -11.0906
   -11.0899 -11.0172 -11.0085 -10.9456 -10.9391 -10.9188 -10.9128 -10.9084
   -10.8662 -10.8624 -10.8557 -10.8515 -10.8399 -10.8269 -10.8152 -10.8034
   -10.7957 -10.7733 -10.7714 -10.7700 -10.7679 -10.7658 -10.7616 -10.7592
   -10.7479 -10.7390 -10.7138 -10.7006 -10.6993 -10.6919 -10.6732 -10.5682
   -10.5442 -10.5228 -10.4957 -10.4427 -10.4250 -10.3753 -10.3021 -10.2610
   -10.2353 -10.1847 -10.1393 -10.0746 -10.0636 -10.0520 -10.0507 -10.0053
    -9.9840  -9.9566  -9.9517  -9.9128  -9.9037  -9.8825  -9.8778  -9.8744
    -9.8689  -9.8548  -9.8506  -9.8419  -9.8352  -9.8256  -9.8202  -9.7716
    -9.7487  -9.7422  -9.7167  -9.7032  -9.7013  -9.6789  -9.6747  -9.6551
    -9.6508  -9.6406  -9.6390  -9.6308  -9.6065  -9.6028  -9.5967  -9.5799
    -9.5619  -9.5606  -9.5499  -9.5078  -9.5013  -9.4735  -9.4691  -9.4661
    -9.4559  -9.4103  -9.4082  -9.4022  -9.3786  -9.3079  -9.2706  -9.2569
    -9.2382  -9.1970  -9.1636  -9.1487  -9.1409  -9.1121  -9.0982  -9.0871
    -9.0868  -9.0814  -9.0778  -9.0505  -9.0406  -9.0190  -9.0079  -8.9875
    -8.9789  -8.9702  -8.9614  -8.9507  -8.9391  -8.9297  -8.9165  -8.9138
    -8.8976  -8.8947  -8.8865  -8.8843  -8.8733  -8.8702  -8.8620  -8.8558
    -8.8335  -8.8109  -8.8084  -8.8018  -8.7976  -8.7944  -8.7868  -8.7853
    -8.7780  -8.7773  -8.7684  -8.7660  -8.7473  -8.7325  -8.7258  -8.7072
[...]
    -3.6862  -3.6675  -3.6252  -3.5727  -3.5427  -3.5354  -3.5328  -3.5311
    -3.5181  -3.5178  -3.5172  -3.4961  -3.4931  -3.4698  -3.4480  -3.4427
    -3.4383  -3.4338  -3.4246  -3.4140  -3.4083  -3.4068  -3.3984  -3.3655
    -3.3592  -3.3518  -3.3265  -3.3013  -3.2988  -3.2859  -3.2842  -3.2799
    -3.2601  -3.2539  -3.2535  -3.2452  -3.2430  -3.2187  -3.2091  -3.2090
    -3.2077  -3.2069  -3.1994  -3.1736  -3.1695  -3.1657  -3.1591  -3.1519
    -3.1459  -3.1425  -3.1317  -3.1270  -3.1218  -3.0997  -3.0809  -3.0638
    -3.0546  -3.0430  -3.0340  -3.0060  -3.0034  -2.9810  -2.9688  -2.9648
    -2.9633  -2.9463  -2.9459  -2.9454  -2.9448  -2.9181  -2.9068  -2.8979
    -2.8963  -2.8832  -2.8775  -2.8660  -2.8598  -2.8558  -2.8543  -2.8510
    -2.8400  -2.8369  -2.8281  -2.8201  -2.8086  -2.7926  -2.7814  -2.7726
    -2.7673  -2.7542  -2.7392  -2.7373  -2.7288  -2.6894  -2.6783  -2.6513
    -2.6463  -2.5998  -2.5873  -2.5836  -2.5797  -2.5668  -2.5634  -2.5023
    -2.4967  -2.4546  -2.4473  -2.4372  -2.4356  -2.4166  -2.3826  -2.3527
    -2.2986  -2.2779  -2.2540

     the Fermi energy is    -4.5914 ev

!    total energy              =  -26031.79578481 Ry
     total all-electron energy =   -512284.365412 Ry
     estimated scf accuracy    <          8.1E-09 Ry
     smearing contrib. (-TS)   =      -0.00000001 Ry
     internal energy E=F+TS    =  -26031.79578479 Ry

     The total energy is F=E-TS. E is the sum of the following terms:
     one-electron contribution =  491341.70227243 Ry
     hartree contribution      = -245810.33445979 Ry
     xc contribution           =   -1534.67556015 Ry
     ewald contribution        = -253835.72463666 Ry
     DFT-D3 Dispersion         =      -4.02158242 Ry
     one-center paw contrib.   =  -16188.74181820 Ry

     convergence has been achieved in  11 iterations

     negative rho (up, down):  9.202E-04 0.000E+00

     Forces acting on atoms (cartesian axes, Ry/au):

     atom    1 type  1   force =     0.00002611    0.00010483   -0.00029317
     atom    2 type  1   force =    -0.00000150    0.00000041    0.00189852
     atom    3 type  1   force =    -0.00001499    0.00002976    0.00001842
     atom    4 type  2   force =    -0.00000023   -0.00000063   -0.00327973
     atom    5 type  2   force =    -0.00000508    0.00001199    0.00000742
     atom    6 type  2   force =    -0.00004742   -0.00050774    0.00028795
     atom    7 type  2   force =     0.00000047   -0.00000071    0.00149913
     atom    8 type  2   force =     0.00000154    0.00004080   -0.00005749
     atom    9 type  2   force =     0.00016641    0.00004398   -0.00025137
     atom   10 type  1   force =     0.00010401   -0.00002901   -0.00029313
     atom   11 type  1   force =    -0.00000230   -0.00000127    0.00189741
     atom   12 type  1   force =     0.00001923   -0.00002755    0.00001856
     atom   13 type  2   force =    -0.00000063   -0.00000067   -0.00328053
     atom   14 type  2   force =     0.00000516    0.00000339    0.00005514
     atom   15 type  2   force =    -0.00046358    0.00021270    0.00028806
     atom   16 type  2   force =    -0.00000427   -0.00000220    0.00150440
     atom   17 type  2   force =    -0.00000975   -0.00000537    0.00005035
     atom   18 type  2   force =     0.00012115    0.00012347   -0.00025134
     atom   19 type  1   force =    -0.00035042   -0.00024880    0.00018103
     atom   20 type  1   force =    -0.00000042   -0.00000144    0.00189852
     atom   21 type  1   force =    -0.00001577   -0.00000091    0.00001051
     atom   22 type  2   force =    -0.00000037   -0.00000032   -0.00327974
     atom   23 type  2   force =     0.00000773   -0.00001035    0.00000738
     atom   24 type  2   force =     0.00016606   -0.00014851   -0.00037132
     atom   25 type  2   force =    -0.00000057    0.00000118    0.00149915
     atom   26 type  2   force =     0.00003603   -0.00001942   -0.00005785
     atom   27 type  2   force =     0.00064849   -0.00036688   -0.00035274
     atom   28 type  1   force =    -0.00039075   -0.00018055    0.00018113
     atom   29 type  1   force =    -0.00000153   -0.00000089    0.00190269
     atom   30 type  1   force =    -0.00000861   -0.00001335    0.00001084
     atom   31 type  2   force =    -0.00000017   -0.00000040   -0.00327958
     atom   32 type  2   force =     0.00001367    0.00000758    0.00003472
     atom   33 type  2   force =    -0.00004548    0.00021705   -0.00037080
     atom   34 type  2   force =    -0.00000708   -0.00000384    0.00149710
     atom   35 type  2   force =    -0.00002217   -0.00001248    0.00001646
     atom   36 type  2   force =     0.00000611    0.00074358   -0.00035127
     atom   37 type  1   force =     0.00005523   -0.00006388   -0.00012267
     atom   38 type  1   force =     0.00000083    0.00000136    0.00190003
     atom   39 type  1   force =     0.00001758    0.00001780    0.00001346
     atom   40 type  2   force =    -0.00000020   -0.00000063   -0.00327895
     atom   41 type  2   force =    -0.00000936   -0.00001008    0.00001542
     atom   42 type  2   force =     0.00005490   -0.00051836    0.00026320
     atom   43 type  2   force =    -0.00000451    0.00000533    0.00149924
     atom   44 type  2   force =     0.00001772    0.00000606   -0.00002234
     atom   45 type  2   force =    -0.00014532    0.00004874   -0.00020348
     atom   46 type  1   force =    -0.00002899   -0.00001679   -0.00014837
     atom   47 type  1   force =     0.00000137   -0.00000043    0.00189567
     atom   48 type  1   force =     0.00000609    0.00000209    0.00009311
     atom   49 type  2   force =    -0.00000042   -0.00000069   -0.00327971
     atom   50 type  2   force =    -0.00000932    0.00000575    0.00005100
     atom   51 type  2   force =    -0.00009705   -0.00005576   -0.00034797
     atom   52 type  2   force =    -0.00000096    0.00000592    0.00150452
     atom   53 type  2   force =     0.00000727   -0.00000163    0.00005431
     atom   54 type  2   force =     0.00034935    0.00020225   -0.00069881
     atom   55 type  1   force =    -0.00002877    0.00007981   -0.00012308
     atom   56 type  1   force =     0.00000027    0.00000147    0.00189567
     atom   57 type  1   force =     0.00002579    0.00000477    0.00001336
     atom   58 type  2   force =    -0.00000057   -0.00000044   -0.00327970
     atom   59 type  2   force =    -0.00000016   -0.00001057    0.00005126
     atom   60 type  2   force =    -0.00042177    0.00030746    0.00026372
[...]
     atom  132 type  2   force =    -0.00010126   -0.00005877   -0.00036919
     atom  133 type  2   force =    -0.00000814   -0.00000052    0.00149590
     atom  134 type  2   force =    -0.00000047    0.00002611    0.00001608
     atom  135 type  2   force =    -0.00095489   -0.00055121   -0.00039430
     atom  136 type  1   force =     0.00037922   -0.00019497    0.00021736
     atom  137 type  1   force =    -0.00000162   -0.00000096    0.00189867
     atom  138 type  1   force =     0.00001051   -0.00000465    0.00001448
     atom  139 type  2   force =    -0.00000039   -0.00000020   -0.00327945
     atom  140 type  2   force =    -0.00001237    0.00000912    0.00003735
     atom  141 type  2   force =     0.00069079   -0.00040080    0.00081761
     atom  142 type  2   force =    -0.00000478   -0.00000637    0.00149588
     atom  143 type  2   force =     0.00002304   -0.00001359    0.00001628
     atom  144 type  2   force =     0.00000823    0.00000254   -0.00011249
     atom  145 type  3   force =    -0.00014276   -0.00008286   -0.00004947
     atom  146 type  4   force =    -0.00005418   -0.00003116    0.00083577

     Total force =     0.003788     Total SCF correction =     0.000665
     SCF correction compared to forces is large: reduce conv_thr to get better values
     Energy error            =      2.8E-05 Ry
     Gradient error          =      9.5E-04 Ry/Bohr

     bfgs converged in  16 scf cycles and  15 bfgs steps
     (criteria: energy <  1.0E-04 Ry, force <  1.0E-03 Ry/Bohr)

     End of BFGS Geometry Optimization

     Final energy             =  -26031.7957848087 Ry

     File ./outdir/pwscf.bfgs deleted, as requested
Begin final coordinates

ATOMIC_POSITIONS (angstrom)
Mo               1.5713940911        2.7161386879        6.0874116294
Mo               1.5769197498        0.9104407117       -6.0872367793    0   0   0
Mo               0.0003093141        1.8207872431        0.0002357180
S                0.0000044503        0.0000077495       -7.6506323570    0   0   0
S                1.5765949594        0.9107191388       -1.5660581730
S                0.0052526408        1.8242702968        4.4988500829
S                0.0000053241        0.0000068460       -4.5222282367    0   0   0
S                1.5773948284        0.9086401954        1.5670556045
S               -0.0202440915        1.8192354668        7.6455665922
Mo              -0.0158950046        5.4653967892        6.0874125520
Mo               0.0000011799        3.6417399547       -6.0872367793    0   0   0
Mo              -1.5768432773        4.5524908305        0.0002352411
S               -1.5769141197        2.7313069925       -7.6506323570    0   0   0
S               -0.0001499459        3.6416585171       -1.5654798843
S               -1.5713467779        4.5550140120        4.4988517264
S               -1.5769132459        2.7313060890       -4.5222282367    0   0   0
S                0.0013178970        3.6425064902        1.5670921364
S               -1.5884536289        4.5354457621        7.6455684418
Mo              -1.5634015320        8.1962988414        6.0833313391
Mo              -1.5769173901        6.3730391977       -6.0872367793    0   0   0
Mo              -3.1541910946        7.2835335770       -0.0016063655
S               -3.1538326896        5.4626062355       -7.6506323570    0   0   0
S               -1.5768440289        6.3726284423       -1.5660582311
S               -3.1747957215        7.2984459133        4.5515688554
S               -3.1538318159        5.4626053320       -4.5222282367    0   0   0
S               -1.5782446085        6.3743607513        1.5670565050
S               -3.0612439948        7.2274691250        7.6943633028
Mo               3.1626727862        0.0105139635        6.0833290826
Mo              -3.1538359601        9.1043384407       -6.0872367793    0   0   0
Mo              -4.7308834976       10.0144410620       -0.0016067549
S               -4.7307512596        8.1939054785       -7.6506323570    0   0   0
S               -3.1540109411        9.1042441675       -1.5674268418
S               -4.7282599862        9.9891268243        4.5515659809
S               -4.7307503859        8.1939045750       -4.5222282367    0   0   0
S               -3.1538007599        9.1043643165        1.5651766308
S               -4.7329522392       10.1229576008        7.6943580667
Mo               4.7355859278        2.7135731483        6.0834713069
Mo               4.7307503218        0.9104407117       -6.0872367793    0   0   0
Mo               3.1536410865        1.8207911477       -0.0005555860
S                3.1538350223        0.0000077495       -7.6506323570    0   0   0
S                4.7306548719        0.9110331410       -1.5666286253
S                3.1523428578        1.8232179976        4.5110156123
S                3.1538358961        0.0000068460       -4.5222282367    0   0   0
S                4.7304532806        0.9098709063        1.5656881910
S                3.1592000910        1.8254541829        7.6531328835
Mo               3.1551140668        5.4633435671        6.1387624725
Mo               3.1538317519        3.6417399547       -6.0872367793    0   0   0
Mo               1.5772266552        4.5523609190       -0.0008206866
S                1.5769164523        2.7313069925       -7.6506323570    0   0   0
S                3.1540594947        3.6418414073       -1.5660206799
S                1.6019024210        4.5665941440        4.5641325938
S                1.5769173261        2.7313060890       -4.5222282367    0   0   0
S                3.1536240190        3.6418116123        1.5669382980
S                1.4509374444        4.4794326848        7.7261636840
Mo               1.5639775745        8.2069551812        6.0834704095
Mo               1.5769131819        6.3730391977       -6.0872367793    0   0   0
Mo              -0.0001777625        7.2833575123       -0.0005550630
S               -0.0000021176        5.4626062355       -7.6506323570    0   0   0
S                1.5771090601        6.3731959351       -1.5660210818
S                0.0012839220        7.2809998256        4.5110173368
[...]
S                6.3236880655        7.2927222574        4.5622651465
S                6.3076599001        5.4626053320       -4.5222282367    0   0   0
S                7.8846705530        6.3736166151        1.5665176209
S                6.2150812817        7.2300185787        7.7044613772
Mo              -0.0100397612        0.0132334747        6.0730184564
Mo               6.3076557559        9.1043384407       -6.0872367793    0   0   0
Mo               4.7306818827       10.0144432602       -0.0002305428
S                4.7307404564        8.1939054785       -7.6506323570    0   0   0
S                6.3070716103        9.1041784242       -1.5664810451
S                4.7279415577       10.0124483174        4.5034023667
S                4.7307413301        8.1939045750       -4.5222282367    0   0   0
S                6.3081971537        9.1041433195        1.5665173772
S                4.7326767024       10.0388979180        7.6459480506
Pt               3.1680314606        5.4708055262        8.8845202333
Pd              -4.7382205673        8.1895975340        9.0132449220
End final coordinates

     Writing all to output data dir ./outdir/pwscf.save/ :
     XML data file, charge density, pseudopotentials, collected wavefunctions

     General routines

     Parallel routines

   This run was terminated on:  13: 2:17   9Mar2024

   JOB DONE.