     Program PWSCF v.7.3 starts on 29Apr2024 at  7: 7:19

     Waiting for input...
     Reading input from standard input
Warning: card &CELL ignored
Warning: card / ignored

     Current dimensions of program PWSCF are:
     Max number of different atomic species (ntypx) = 10
     Max number of k-points (npk) =  40000
     Max angular momentum in pseudopotentials (lmaxx) =  4
     file Mo.pbe-spn-kjpaw_psl.1.0.0.UPF: wavefunction(s)  4S 4D renormalized
     file S.pbe-n-kjpaw_psl.1.0.0.UPF: wavefunction(s)  3S 3P renormalized
     file Pt.pbe-spfn-kjpaw_psl.1.0.0.UPF: wavefunction(s)  5P 4F renormalized
     file Pd.pbe-spn-kjpaw_psl.1.0.0.UPF: wavefunction(s)  4S 5S 4D renormalized

     R & G space division:  proc/nbgrp/npool/nimage =      36
     Subspace diagonalization in iterative solution of the eigenvalue problem:
     one sub-group per band group will be used

     Using Slab Decomposition

     bravais-lattice index     =            0
     lattice parameter (alat)  =      23.8199  a.u.
     unit-cell volume          =   33861.0370 (a.u.)^3
     number of atoms/cell      =          195
     number of atomic types    =            4
     number of electrons       =      1732.00
     number of Kohn-Sham states=         1039
     kinetic-energy cutoff     =      77.0000  Ry
     charge density cutoff     =     539.0000  Ry
     scf convergence threshold =      1.0E-06
     mixing beta               =       0.2000
     number of iterations used =            8  plain     mixing
     energy convergence thresh.=      1.0E-04
     force convergence thresh. =      1.0E-03
     Exchange-correlation= SLA  PW   PBX  PBC
                           (   1   4   3   4   0   0   0)
     nstep                     =         1000

     Effective Screening Medium Method
     Boundary Conditions: Vacuum-Slab-Vacuum
     total charge in unit cell        =   0.0000
     grid points for fit at edges     =        4

     celldm(1)=  23.819920  celldm(2)=   0.000000  celldm(3)=   0.000000
     celldm(4)=   0.000000  celldm(5)=   0.000000  celldm(6)=   0.000000

     crystal axes: (cart. coord. in units of alat)
               a(1) = (   1.000000   0.000000   0.000000 )
               a(2) = (  -0.499999   0.866026   0.000000 )
               a(3) = (   0.000000   0.000000   2.893000 )

     reciprocal axes: (cart. coord. in units 2 pi/alat)
               b(1) = (  1.000000  0.577349  0.000000 )
               b(2) = (  0.000000  1.154700  0.000000 )
               b(3) = (  0.000000  0.000000  0.345662 )

     PseudoPot. # 1 for Mo read from file:
     ./pseudo/Mo.pbe-spn-kjpaw_psl.1.0.0.UPF
     MD5 check sum: 317bf72632116215fd98f72de1686f13
     Pseudo is Projector augmented-wave + core cor, Zval = 14.0
     Generated using 'atomic' code by A. Dal Corso  v.7.2
     Shape of augmentation charge: PSQ
     Using radial grid of 1229 points,  6 beta functions with:
                l(1) =   0
                l(2) =   0
                l(3) =   1
                l(4) =   1
                l(5) =   2
                l(6) =   2
     Q(r) pseudized with 0 coefficients

     PseudoPot. # 2 for S  read from file:
     ./pseudo/S.pbe-n-kjpaw_psl.1.0.0.UPF
     MD5 check sum: 8b7b5302570d38d5e87fed6a1065abda
     Pseudo is Projector augmented-wave + core cor, Zval =  6.0
     Generated using 'atomic' code by A. Dal Corso  v.7.2
     Shape of augmentation charge: PSQ
     Using radial grid of 1151 points,  6 beta functions with:
                l(1) =   0
                l(2) =   0
                l(3) =   1
                l(4) =   1
                l(5) =   2
                l(6) =   2
     Q(r) pseudized with 0 coefficients

     PseudoPot. # 3 for Pt read from file:
     ./pseudo/Pt.pbe-spfn-kjpaw_psl.1.0.0.UPF
     MD5 check sum: 620096ebf4e6ebacc94de60fd67efcb5
     Pseudo is Projector augmented-wave + core cor, Zval = 32.0
     Generated using 'atomic' code by A. Dal Corso  v.7.2
     Shape of augmentation charge: PSQ
     Using radial grid of 1277 points,  8 beta functions with:
                l(1) =   0
                l(2) =   0
                l(3) =   1
                l(4) =   1
                l(5) =   2
                l(6) =   2
                l(7) =   3
                l(8) =   3
     Q(r) pseudized with 0 coefficients

     PseudoPot. # 4 for Pd read from file:
     ./pseudo/Pd.pbe-spn-kjpaw_psl.1.0.0.UPF
     MD5 check sum: a60571a671f2502b8a6a4569d20a6edb
     Pseudo is Projector augmented-wave + core cor, Zval = 18.0
     Generated using 'atomic' code by A. Dal Corso  v.7.2
     Shape of augmentation charge: PSQ
     Using radial grid of 1235 points,  6 beta functions with:
                l(1) =   0
                l(2) =   0
                l(3) =   1
                l(4) =   1
                l(5) =   2
                l(6) =   2
     Q(r) pseudized with 0 coefficients

     atomic species   valence    mass     pseudopotential
     Mo               14.00    95.95000     Mo( 1.00)
     S                 6.00    32.06000     S ( 1.00)
     Pt               32.00   195.08400     Pt( 1.00)
     Pd               18.00   106.42000     Pd( 1.00)

     No symmetry found

   Cartesian axes

     site n.     atom                  positions (alat units)
         1        Mo     tau(   1) = (   0.0000010   0.1443372  -0.7272732  )
         2        Mo     tau(   2) = (   0.1249995   0.0721706  -0.2424038  )
         3        S      tau(   3) = (   0.0000015   0.1443386  -0.3667807  )
         4        S      tau(   4) = (   0.1250010   0.0721682  -0.6030489  )
         5        S      tau(   5) = (   0.1250010   0.0721683  -0.8514963  )
         6        S      tau(   6) = (   0.0000015   0.1443389  -0.1180260  )
         7        Mo     tau(   7) = (   0.0000005   0.1443381   0.2424561  )
         8        Mo     tau(   8) = (   0.1251981   0.0716023   0.7276027  )
         9        S      tau(   9) = (  -0.0003031   0.1454842   0.6052312  )
        10        S      tau(  10) = (   0.1249558   0.0721599   0.3668208  )
        11        S      tau(  11) = (   0.1250088   0.0721517   0.1180857  )
        12        S      tau(  12) = (  -0.0004157   0.1382876   0.8564685  )
        13        Mo     tau(  13) = (  -0.1249989   0.3608437  -0.7272732  )
        14        Mo     tau(  14) = (   0.0000030   0.2886752  -0.2424042  )
        15        S      tau(  15) = (  -0.1249977   0.3608450  -0.3667802  )
        16        S      tau(  16) = (   0.0000012   0.2886747  -0.6030489  )
        17        S      tau(  17) = (   0.0000012   0.2886748  -0.8514963  )
        18        S      tau(  18) = (  -0.1249977   0.3608454  -0.1180274  )
        19        Mo     tau(  19) = (  -0.1249623   0.3608201   0.2425155  )
        20        Mo     tau(  20) = (  -0.0007801   0.2872696   0.7308518  )
        21        S      tau(  21) = (  -0.1240398   0.3604107   0.6055268  )
        22        S      tau(  22) = (   0.0000411   0.2886546   0.3669163  )
        23        S      tau(  23) = (   0.0000035   0.2886726   0.1180964  )
        24        S      tau(  24) = (  -0.1315418   0.3638985   0.8543850  )
        25        Mo     tau(  25) = (  -0.2499987   0.5773502  -0.7272732  )
        26        Mo     tau(  26) = (  -0.1249977   0.5051839  -0.2424055  )
        27        S      tau(  27) = (  -0.2499981   0.5773518  -0.3667809  )
        28        S      tau(  28) = (  -0.1249986   0.5051812  -0.6030489  )
        29        S      tau(  29) = (  -0.1249986   0.5051813  -0.8514963  )
        30        S      tau(  30) = (  -0.2499979   0.5773512  -0.1180266  )
        31        Mo     tau(  31) = (  -0.2499787   0.5773156   0.2425145  )
        32        Mo     tau(  32) = (  -0.1271807   0.5060660   0.7281741  )
        33        S      tau(  33) = (  -0.2502658   0.5775034   0.6017985  )
        34        S      tau(  34) = (  -0.1249543   0.5051367   0.3669386  )
        35        S      tau(  35) = (  -0.1249864   0.5051552   0.1181399  )
        36        S      tau(  36) = (  -0.2525628   0.5785576   0.8514793  )
        37        Mo     tau(  37) = (  -0.3749985   0.7938567  -0.7272732  )
        38        Mo     tau(  38) = (  -0.2500001   0.7216874  -0.2424031  )
        39        S      tau(  39) = (  -0.3749980   0.7938584  -0.3667800  )
        40        S      tau(  40) = (  -0.2499984   0.7216877  -0.6030489  )
        41        S      tau(  41) = (  -0.2499984   0.7216878  -0.8514963  )
        42        S      tau(  42) = (  -0.3749982   0.7938585  -0.1180264  )
        43        Mo     tau(  43) = (  -0.3750043   0.7938372   0.2424536  )
        44        Mo     tau(  44) = (  -0.2503619   0.7218808   0.7263407  )
        45        S      tau(  45) = (  -0.3755748   0.7941519   0.6023691  )
        46        S      tau(  46) = (  -0.2500067   0.7216811   0.3668312  )
        47        S      tau(  47) = (  -0.2499793   0.7216445   0.1181126  )
        48        S      tau(  48) = (  -0.3746959   0.7932047   0.8515893  )
        49        Mo     tau(  49) = (   0.2500010   0.1443372  -0.7272732  )
        50        Mo     tau(  50) = (   0.3750034   0.0721723  -0.2424032  )
        51        S      tau(  51) = (   0.2500017   0.1443391  -0.3667788  )
        52        S      tau(  52) = (   0.3750010   0.0721682  -0.6030489  )
        53        S      tau(  53) = (   0.3750010   0.0721683  -0.8514963  )
        54        S      tau(  54) = (   0.2500016   0.1443391  -0.1180271  )
        55        Mo     tau(  55) = (   0.2500033   0.1443124   0.2424881  )
        56        Mo     tau(  56) = (   0.3752595   0.0716472   0.7255395  )
        57        S      tau(  57) = (   0.2498544   0.1431280   0.6011361  )
        58        S      tau(  58) = (   0.3750516   0.0721435   0.3668117  )
        59        S      tau(  59) = (   0.3750079   0.0721203   0.1180977  )
        60        S      tau(  60) = (   0.2517312   0.1427646   0.8506906  )
[...]
       181        Mo     tau( 181) = (   0.3750016   0.7938567  -0.7272732  )
       182        Mo     tau( 182) = (   0.5000025   0.7216901  -0.2424039  )
       183        S      tau( 183) = (   0.3750019   0.7938578  -0.3667793  )
       184        S      tau( 184) = (   0.5000016   0.7216877  -0.6030489  )
       185        S      tau( 185) = (   0.5000016   0.7216878  -0.8514963  )
       186        S      tau( 186) = (   0.3750020   0.7938579  -0.1180272  )
       187        Mo     tau( 187) = (   0.3749951   0.7938323   0.2424893  )
       188        Mo     tau( 188) = (   0.4998599   0.7217391   0.7271366  )
       189        S      tau( 189) = (   0.3746033   0.7939741   0.6029663  )
       190        S      tau( 190) = (   0.4999946   0.7216688   0.3668260  )
       191        S      tau( 191) = (   0.4999891   0.7216628   0.1180901  )
       192        S      tau( 192) = (   0.3755955   0.7938624   0.8526444  )
       193        Pt     tau( 193) = (   0.1194898   0.4990527   0.9549993  )
       194        Pd     tau( 194) = (   0.0026419   0.2990244   0.9662205  )
       195        Pd     tau( 195) = (   0.2535510   0.2866332   0.9810425  )

     DFT-D3 Dispersion Correction (3-body terms):
       Reference C6 values for interpolation:

[...]
   -40.7141 -40.7141 -40.7136 -40.7136 -40.7136 -40.7136 -40.7126 -40.7007
   -40.6936 -40.6863 -40.6803 -40.6797 -40.6797 -40.6797 -40.6797 -40.6796
   -40.6796 -40.6796 -40.6796 -40.6788 -40.6788 -40.6788 -40.6788 -40.6676
   -40.6676 -40.6676 -40.6673 -40.6667 -40.6667 -40.6614 -40.6569 -40.6541
   -40.6506 -40.6483 -40.6483 -40.6483 -40.6479 -40.6473 -40.6473 -40.6426
   -40.6313 -40.6313 -40.6312 -40.6311 -40.6303 -40.6303 -40.6295 -40.6273
   -40.6133 -40.6087 -40.6006 -40.6006 -40.6006 -40.6003 -40.5996 -40.5996
   -40.5925 -40.5764 -40.5636 -20.5144 -19.9334 -19.9172 -19.8750 -19.8270
   -19.7830 -19.7188 -19.6916 -19.6425 -19.5144 -19.4802 -19.4600 -19.3963
   -19.3677 -19.2947 -19.2704 -19.2231 -18.8829 -18.8585 -18.8166 -18.8113
   -18.7883 -18.7683 -18.7615 -18.7604 -18.7555 -18.7381 -18.7059 -18.7006
   -18.6881 -18.6834 -18.6667 -18.6490 -18.6360 -18.6190 -18.5975 -18.5954
   -18.5945 -18.5828 -18.5732 -18.5574 -18.5345 -18.5311 -18.5205 -18.5140
   -18.4798 -18.4591 -18.4545 -18.4501 -18.4361 -18.4209 -18.4003 -18.3788
   -18.3634 -18.3609 -18.3444 -18.3207 -18.2957 -18.2898 -18.2854 -18.2522
   -18.2336 -18.2250 -18.2173 -18.2055 -18.1814 -18.1724 -18.1554 -18.1498
   -18.1442 -18.1428 -18.1414 -18.1365 -18.1197 -18.1154 -18.1137 -18.1127
   -18.1121 -18.1082 -18.1017 -18.0953 -18.0868 -18.0839 -18.0711 -18.0560
   -18.0529 -18.0504 -18.0455 -18.0445 -18.0432 -18.0386 -18.0336 -18.0303
   -18.0200 -17.9969 -17.9916 -17.9812 -17.9775 -17.9756 -17.9625 -17.9377
   -17.9365 -17.9273 -17.9180 -17.8973 -17.8938 -17.8875 -17.8864 -17.8815
   -17.8773 -17.8637 -17.8631 -17.8624 -17.8619 -17.8606 -17.8603 -17.8478
   -17.8471 -17.8284 -17.8264 -17.8044 -17.8025 -17.7853 -17.7827 -17.7706
   -17.7691 -17.7631 -17.7629 -12.5211 -12.2662 -12.1934 -11.7678 -11.7594
   -11.6933 -11.5819 -11.5627 -11.5489 -11.5460 -11.5388 -11.5269 -11.5149
   -11.5140 -11.5029 -11.4727 -11.4620 -11.4472 -11.4366 -11.4225 -11.4107
   -11.3900 -11.3838 -11.3618 -11.3481 -11.3447 -11.3276 -11.3214 -11.3132
   -11.3060 -11.3032 -11.2984 -11.2939 -11.2618 -11.2511 -11.2410 -11.2381
   -11.2240 -11.2203 -11.2139 -11.2117 -11.2003 -11.1940 -11.1929 -11.1862
   -11.1831 -11.1630 -11.1413 -11.1296 -11.1158 -11.1077 -11.0838 -11.0566
   -11.0435 -10.9920 -10.9855 -10.9701 -10.9691 -10.9473 -10.9417 -10.9350
   -10.9180 -10.9047 -10.8889 -10.8801 -10.8774 -10.8708 -10.8674 -10.8574
   -10.8546 -10.8544 -10.8534 -10.8525 -10.8433 -10.8402 -10.8391 -10.8358
[...]
    -3.4429  -3.4183  -3.3971  -3.3951  -3.3893  -3.3878  -3.3820  -3.3805
    -3.3772  -3.3600  -3.3517  -3.3426  -3.3329  -3.3278  -3.3228  -3.3203
    -3.3200  -3.3182  -3.3129  -3.3031  -3.2880  -3.2877  -3.2803  -3.2762
    -3.2686  -3.2641  -3.2587  -3.2536  -3.2532  -3.2460  -3.2400  -3.2296
    -3.2232  -3.2218  -3.2154  -3.2082  -3.2048  -3.2038  -3.2037  -3.1841
    -3.1531  -3.1432  -3.1336  -3.1317  -3.1144  -3.1133  -3.1089  -3.1008
    -3.0728  -3.0693  -3.0658  -3.0652  -3.0632  -3.0620  -3.0570  -3.0550
    -3.0524  -3.0509  -3.0492  -3.0456  -3.0359  -3.0322  -3.0284  -3.0267
    -3.0183  -3.0140  -3.0105  -3.0070  -3.0061  -2.9999  -2.9901  -2.9889
    -2.9865  -2.9834  -2.9800  -2.9735  -2.9691  -2.9640  -2.9458  -2.9434
    -2.9263  -2.9252  -2.9184  -2.9158  -2.9098  -2.8839  -2.8451  -2.8403
    -2.8317  -2.8194  -2.7960  -2.7767  -2.7669  -2.7601  -2.6823  -2.6702
    -2.6531  -2.6339  -2.6273  -2.6250  -2.6094  -2.5912  -2.5829  -2.5812
    -2.5721  -2.5692  -2.5675  -2.5592  -2.5525  -2.4680  -2.4483  -2.4457
    -2.4386  -2.4349  -2.4294  -2.4243  -2.4220  -2.3926  -2.3880

     the Fermi energy is    -4.7090 ev

!    total energy              =  -34492.28305316 Ry
     total all-electron energy =   -677498.162740 Ry
     estimated scf accuracy    <          3.5E-09 Ry
     smearing contrib. (-TS)   =      -0.00000007 Ry
     internal energy E=F+TS    =  -34492.28305308 Ry

     The total energy is F=E-TS. E is the sum of the following terms:
     one-electron contribution = 1196988.08730567 Ry
     hartree contribution      = -598675.42946747 Ry
     xc contribution           =   -2041.75053652 Ry
     ewald contribution        = -609199.57113401 Ry
     DFT-D3 Dispersion         =      -5.46994933 Ry
     one-center paw contrib.   =  -21558.14927142 Ry

     convergence has been achieved in   9 iterations

     negative rho (up, down):  9.678E-04 0.000E+00

     Forces acting on atoms (cartesian axes, Ry/au):

     atom    1 type  1   force =     0.00000134    0.00000034    0.00068796
     atom    2 type  1   force =     0.00002652   -0.00000804    0.00000374
     atom    3 type  2   force =     0.00000145    0.00000101    0.00000119
     atom    4 type  2   force =    -0.00000011    0.00000117    0.00161551
     atom    5 type  2   force =    -0.00000042    0.00000059   -0.00236019
     atom    6 type  2   force =     0.00000198    0.00000395    0.00001920
     atom    7 type  1   force =    -0.00000193    0.00000440    0.00002608
     atom    8 type  1   force =    -0.00007464    0.00020818    0.00006273
     atom    9 type  2   force =    -0.00000667    0.00006406   -0.00022837
     atom   10 type  2   force =     0.00000406   -0.00000416    0.00000958
     atom   11 type  2   force =    -0.00000044    0.00000751    0.00003892
     atom   12 type  2   force =    -0.00013876   -0.00000998    0.00011782
     atom   13 type  1   force =     0.00000148    0.00000003    0.00068846
     atom   14 type  1   force =    -0.00000865    0.00001340    0.00000095
     atom   15 type  2   force =     0.00000355    0.00000128    0.00000347
     atom   16 type  2   force =     0.00000004    0.00000111    0.00161553
     atom   17 type  2   force =    -0.00000026    0.00000063   -0.00236025
     atom   18 type  2   force =     0.00000742    0.00000012    0.00001262
     atom   19 type  1   force =     0.00001017   -0.00000528    0.00003054
     atom   20 type  1   force =    -0.00012905   -0.00014906   -0.00026617
     atom   21 type  2   force =     0.00030177    0.00024772   -0.00001289
     atom   22 type  2   force =     0.00002784    0.00001740    0.00003098
     atom   23 type  2   force =    -0.00001040   -0.00000173    0.00004391
     atom   24 type  2   force =     0.00004597    0.00000613   -0.00019041
     atom   25 type  1   force =     0.00000131    0.00000020    0.00068837
     atom   26 type  1   force =     0.00000159   -0.00000869    0.00001686
     atom   27 type  2   force =     0.00000089    0.00000316    0.00000060
     atom   28 type  2   force =     0.00000005    0.00000114    0.00161548
     atom   29 type  2   force =    -0.00000023    0.00000058   -0.00236017
     atom   30 type  2   force =     0.00000371   -0.00000370    0.00001282
     atom   31 type  1   force =     0.00000653   -0.00000581    0.00001932
     atom   32 type  1   force =    -0.00002266   -0.00000817    0.00007004
     atom   33 type  2   force =     0.00006556   -0.00011011   -0.00002786
     atom   34 type  2   force =     0.00000627   -0.00000320   -0.00001045
     atom   35 type  2   force =     0.00000311   -0.00000644    0.00003988
     atom   36 type  2   force =    -0.00007016    0.00002393    0.00005403
     atom   37 type  1   force =     0.00000184    0.00000057    0.00068820
     atom   38 type  1   force =     0.00002680    0.00002243   -0.00000561
     atom   39 type  2   force =     0.00000011    0.00000200    0.00000456
     atom   40 type  2   force =     0.00000000    0.00000125    0.00161557
     atom   41 type  2   force =    -0.00000029    0.00000064   -0.00236011
     atom   42 type  2   force =     0.00000028    0.00000047    0.00001274
     atom   43 type  1   force =     0.00000572   -0.00000046    0.00000573
     atom   44 type  1   force =    -0.00004961   -0.00002584   -0.00009409
     atom   45 type  2   force =    -0.00009087    0.00033404    0.00010765
     atom   46 type  2   force =     0.00000102    0.00000678   -0.00001198
     atom   47 type  2   force =     0.00001611   -0.00001499    0.00002401
     atom   48 type  2   force =     0.00002020    0.00014182   -0.00013157
     atom   49 type  1   force =     0.00000113    0.00000024    0.00068756
     atom   50 type  1   force =    -0.00002335   -0.00002746   -0.00000320
     atom   51 type  2   force =     0.00000005    0.00000326    0.00000533
     atom   52 type  2   force =    -0.00000026    0.00000112    0.00161575
     atom   53 type  2   force =    -0.00000043    0.00000064   -0.00236016
     atom   54 type  2   force =     0.00000148    0.00000490    0.00001819
     atom   55 type  1   force =    -0.00000303    0.00000175    0.00002751
     atom   56 type  1   force =     0.00001729   -0.00009489   -0.00006959
     atom   57 type  2   force =     0.00000435   -0.00007055   -0.00002816
     atom   58 type  2   force =     0.00000188    0.00000624    0.00000442
     atom   59 type  2   force =    -0.00001353    0.00000885    0.00002788
     atom   60 type  2   force =     0.00015656   -0.00018690    0.00016801
[...]
     atom  181 type  1   force =     0.00000119    0.00000030    0.00068784
     atom  182 type  1   force =    -0.00000857   -0.00000998    0.00000204
     atom  183 type  2   force =    -0.00000189   -0.00000046    0.00000395
     atom  184 type  2   force =    -0.00000018    0.00000110    0.00161565
     atom  185 type  2   force =    -0.00000034    0.00000061   -0.00236013
     atom  186 type  2   force =    -0.00000155   -0.00000304    0.00000975
     atom  187 type  1   force =    -0.00000793    0.00000132    0.00002852
     atom  188 type  1   force =    -0.00009343    0.00003021   -0.00000347
     atom  189 type  2   force =    -0.00017026    0.00011070    0.00009940
     atom  190 type  2   force =     0.00001652   -0.00001054   -0.00001110
     atom  191 type  2   force =    -0.00001299    0.00000281    0.00003029
     atom  192 type  2   force =    -0.00010255    0.00005166   -0.00011600
     atom  193 type  3   force =    -0.00007574   -0.00005108    0.00003750
     atom  194 type  4   force =     0.00008372    0.00041024    0.00023913
     atom  195 type  4   force =     0.00041223   -0.00016191   -0.00029683

     Total force =     0.001815     Total SCF correction =     0.000328
     SCF correction compared to forces is large: reduce conv_thr to get better values
     Energy error            =      8.2E-06 Ry
     Gradient error          =      4.8E-04 Ry/Bohr

     bfgs converged in  21 scf cycles and  20 bfgs steps
     (criteria: energy <  1.0E-04 Ry, force <  1.0E-03 Ry/Bohr)

     End of BFGS Geometry Optimization

     Final energy             =  -34492.2830531590 Ry

     File ./outdir/pwscf.bfgs deleted, as requested
Begin final coordinates

ATOMIC_POSITIONS (angstrom)
Mo               0.0000119917        1.8193638619       -9.1672481230    0   0   0
Mo               1.5756136568        0.9097075315       -3.0554901653    0   0   0
S                0.0000188998        1.8193822938       -4.6232556019    0   0   0
S                1.5756321638        0.9096773839       -7.6014065489    0   0   0
S                1.5756326175        0.9096785128      -10.7330757790    0   0   0
S                0.0000189190        1.8193860094       -1.4877129945    0   0   0
Mo               0.0001147297        1.8189421522        3.0573287781
Mo               1.5774169484        0.8967906156        9.1773696157
S               -0.0039159547        1.8012610414        7.6044342996
S                1.5757103534        0.9090982717        4.6247085886
S                1.5759181716        0.9094341826        1.4894548089
S               -0.0110710600        1.7636570751       10.7705938320
Mo              -1.5756053507        4.5484193819       -9.1672481230    0   0   0
Mo               0.0000378379        3.6387394919       -3.0554952701    0   0   0
S               -1.5755913433        4.5484363582       -4.6232494962    0   0   0
S                0.0000148214        3.6387329039       -7.6014065489    0   0   0
S                0.0000152751        3.6387340328      -10.7330757790    0   0   0
S               -1.5755906502        4.5484413613       -1.4877305502    0   0   0
Mo              -1.5753611102        4.5480184614        3.0576207856
Mo              -0.0394645022        3.6104118937        9.1608855891
S               -1.5917437500        4.5528373789        7.6055131949
S               -0.0001122823        3.6380343007        4.6261015224
S                0.0004786791        3.6385528189        1.4900196135
S               -1.6319240824        4.5629212908       10.7630959778
Mo              -3.1512226931        7.2774749019       -9.1672481230    0   0   0
Mo              -1.5755910988        6.3678216792       -3.0555115988    0   0   0
S               -3.1512162438        7.2774954350       -4.6232578178    0   0   0
S               -1.5756025210        6.3677884239       -7.6014065489    0   0   0
S               -1.5756020673        6.3677895528      -10.7330757790    0   0   0
S               -3.1512127704        7.2774877076       -1.4877200710    0   0   0
Mo              -3.1509197912        7.2770775839        3.0572513624
Mo              -1.5898220132        6.3735632638        9.1817026635
S               -3.1488871316        7.2793313467        7.5986388392
S               -1.5751307000        6.3675555629        4.6252429811
S               -1.5752591649        6.3672861985        1.4895789992
S               -3.1669371668        7.2830767436       10.7415928888
Mo              -4.7268400355       10.0065304219       -9.1672481230    0   0   0
Mo              -3.1512405618        9.0968403586       -3.0554816746    0   0   0
S               -4.7268341792       10.0065523623       -4.6232463762    0   0   0
S               -3.1512198634        9.0968439439       -7.6014065489    0   0   0
S               -3.1512194097        9.0968450728      -10.7330757790    0   0   0
S               -4.7268370797       10.0065537885       -1.4877176751    0   0   0
Mo              -4.7266300791       10.0060516506        3.0570066693
Mo              -3.1495304120        9.0967797653        9.1698933143
S               -4.7248322420       10.0031443872        7.6003979754
S               -3.1510223180        9.0964277314        4.6248965124
S               -3.1509518016        9.0963963465        1.4893199894
S               -4.7249920573        9.9947304257       10.7421672883
Mo               3.1512517547        1.8193638619       -9.1672481230    0   0   0
Mo               4.7269020221        0.9097289540       -3.0554823951    0   0   0
S                3.1512612351        1.8193882564       -4.6232320683    0   0   0
S                4.7268719268        0.9096773839       -7.6014065489    0   0   0
S                4.7268723805        0.9096785128      -10.7330757790    0   0   0
S                3.1512592485        1.8193890201       -1.4877261251    0   0   0
Mo               3.1515598511        1.8189273097        3.0575470115
Mo               4.7305394348        0.8983233210        9.1676883505
S                3.1560060204        1.7983796377        7.5985597309
S                4.7275387079        0.9090975142        4.6249125098
S                4.7270001560        0.9091889249        1.4894588215
S                3.1641448470        1.7741962249       10.7656491350
[...]
Mo               4.7268792535       10.0065304219       -9.1672481230    0   0   0
Mo               6.3025111524        9.0968738021       -3.0554915260    0   0   0
S                4.7268840634       10.0065452125       -4.6232380477    0   0   0
S                6.3024994256        9.0968439439       -7.6014065489    0   0   0
S                6.3024998793        9.0968450728      -10.7330757790    0   0   0
S                4.7268847312       10.0065459141       -1.4877283294    0   0   0
Mo               4.7269907888       10.0060186058        3.0570731446
Mo               6.3044966177        9.0961097953        9.1693793030
S                4.7272788987       10.0015562214        7.5970536136
S                6.3026515500        9.0965450821        4.6247920320
S                6.3026954047        9.0963454400        1.4892326092
S                4.7354362930       10.0063433183       10.7479856913
Pt               1.5714203899        6.2131565219       12.0960513217
Pd               0.1310764234        3.7496844453       12.2383096958
Pd               3.0046859238        3.7631113664       12.2675560818
End final coordinates

     Writing all to output data dir ./outdir/pwscf.save/ :
     XML data file, charge density, pseudopotentials, collected wavefunctions

     General routines

     Parallel routines

   This run was terminated on:   7:38:52   1May2024

   JOB DONE.