     Program PWSCF v.7.3 starts on  6May2024 at 19:37: 3

     Waiting for input...
     Reading input from standard input
Warning: card &CELL ignored
Warning: card / ignored

     Current dimensions of program PWSCF are:
     Max number of different atomic species (ntypx) = 10
     Max number of k-points (npk) =  40000
     Max angular momentum in pseudopotentials (lmaxx) =  4
     file Mo.pbe-spn-kjpaw_psl.1.0.0.UPF: wavefunction(s)  4S 4D renormalized
     file S.pbe-n-kjpaw_psl.1.0.0.UPF: wavefunction(s)  3S 3P renormalized
     file Pt.pbe-spfn-kjpaw_psl.1.0.0.UPF: wavefunction(s)  5P 4F renormalized
     file Pd.pbe-spn-kjpaw_psl.1.0.0.UPF: wavefunction(s)  4S 5S 4D renormalized

     R & G space division:  proc/nbgrp/npool/nimage =      36
     Subspace diagonalization in iterative solution of the eigenvalue problem:
     one sub-group per band group will be used

     Using Slab Decomposition

     bravais-lattice index     =            0
     lattice parameter (alat)  =      23.8199  a.u.
     unit-cell volume          =   33861.0370 (a.u.)^3
     number of atoms/cell      =          195
     number of atomic types    =            4
     number of electrons       =      1732.00
     number of Kohn-Sham states=         1039
     kinetic-energy cutoff     =      77.0000  Ry
     charge density cutoff     =     539.0000  Ry
     scf convergence threshold =      1.0E-06
     mixing beta               =       0.2000
     number of iterations used =            8  plain     mixing
     energy convergence thresh.=      1.0E-04
     force convergence thresh. =      1.0E-03
     Exchange-correlation= SLA  PW   PBX  PBC
                           (   1   4   3   4   0   0   0)
     nstep                     =         1000

     Effective Screening Medium Method
     Boundary Conditions: Vacuum-Slab-Vacuum
     total charge in unit cell        =   0.0000
     grid points for fit at edges     =        4

     celldm(1)=  23.819920  celldm(2)=   0.000000  celldm(3)=   0.000000
     celldm(4)=   0.000000  celldm(5)=   0.000000  celldm(6)=   0.000000

     crystal axes: (cart. coord. in units of alat)
               a(1) = (   1.000000   0.000000   0.000000 )
               a(2) = (  -0.499999   0.866026   0.000000 )
               a(3) = (   0.000000   0.000000   2.893000 )

     reciprocal axes: (cart. coord. in units 2 pi/alat)
               b(1) = (  1.000000  0.577349  0.000000 )
               b(2) = (  0.000000  1.154700  0.000000 )
               b(3) = (  0.000000  0.000000  0.345662 )

     PseudoPot. # 1 for Mo read from file:
     ./pseudo/Mo.pbe-spn-kjpaw_psl.1.0.0.UPF
     MD5 check sum: 317bf72632116215fd98f72de1686f13
     Pseudo is Projector augmented-wave + core cor, Zval = 14.0
     Generated using 'atomic' code by A. Dal Corso  v.7.2
     Shape of augmentation charge: PSQ
     Using radial grid of 1229 points,  6 beta functions with:
                l(1) =   0
                l(2) =   0
                l(3) =   1
                l(4) =   1
                l(5) =   2
                l(6) =   2
     Q(r) pseudized with 0 coefficients

     PseudoPot. # 2 for S  read from file:
     ./pseudo/S.pbe-n-kjpaw_psl.1.0.0.UPF
     MD5 check sum: 8b7b5302570d38d5e87fed6a1065abda
     Pseudo is Projector augmented-wave + core cor, Zval =  6.0
     Generated using 'atomic' code by A. Dal Corso  v.7.2
     Shape of augmentation charge: PSQ
     Using radial grid of 1151 points,  6 beta functions with:
                l(1) =   0
                l(2) =   0
                l(3) =   1
                l(4) =   1
                l(5) =   2
                l(6) =   2
     Q(r) pseudized with 0 coefficients

     PseudoPot. # 3 for Pt read from file:
     ./pseudo/Pt.pbe-spfn-kjpaw_psl.1.0.0.UPF
     MD5 check sum: 620096ebf4e6ebacc94de60fd67efcb5
     Pseudo is Projector augmented-wave + core cor, Zval = 32.0
     Generated using 'atomic' code by A. Dal Corso  v.7.2
     Shape of augmentation charge: PSQ
     Using radial grid of 1277 points,  8 beta functions with:
                l(1) =   0
                l(2) =   0
                l(3) =   1
                l(4) =   1
                l(5) =   2
                l(6) =   2
                l(7) =   3
                l(8) =   3
     Q(r) pseudized with 0 coefficients

     PseudoPot. # 4 for Pd read from file:
     ./pseudo/Pd.pbe-spn-kjpaw_psl.1.0.0.UPF
     MD5 check sum: a60571a671f2502b8a6a4569d20a6edb
     Pseudo is Projector augmented-wave + core cor, Zval = 18.0
     Generated using 'atomic' code by A. Dal Corso  v.7.2
     Shape of augmentation charge: PSQ
     Using radial grid of 1235 points,  6 beta functions with:
                l(1) =   0
                l(2) =   0
                l(3) =   1
                l(4) =   1
                l(5) =   2
                l(6) =   2
     Q(r) pseudized with 0 coefficients

     atomic species   valence    mass     pseudopotential
     Mo               14.00    95.95000     Mo( 1.00)
     S                 6.00    32.06000     S ( 1.00)
     Pt               32.00   195.08400     Pt( 1.00)
     Pd               18.00   106.42000     Pd( 1.00)

     No symmetry found

   Cartesian axes

     site n.     atom                  positions (alat units)
         1        Mo     tau(   1) = (   0.0000010   0.1443372  -0.7272732  )
         2        Mo     tau(   2) = (   0.1249995   0.0721706  -0.2424038  )
         3        S      tau(   3) = (   0.0000015   0.1443386  -0.3667807  )
         4        S      tau(   4) = (   0.1250010   0.0721682  -0.6030489  )
         5        S      tau(   5) = (   0.1250010   0.0721683  -0.8514963  )
         6        S      tau(   6) = (   0.0000015   0.1443389  -0.1180260  )
         7        Mo     tau(   7) = (   0.0000005   0.1443381   0.2424561  )
         8        Mo     tau(   8) = (   0.1251981   0.0716023   0.7276027  )
         9        S      tau(   9) = (  -0.0003031   0.1454842   0.6052312  )
        10        S      tau(  10) = (   0.1249558   0.0721599   0.3668208  )
        11        S      tau(  11) = (   0.1250088   0.0721517   0.1180857  )
        12        S      tau(  12) = (  -0.0004157   0.1382876   0.8564685  )
        13        Mo     tau(  13) = (  -0.1249989   0.3608437  -0.7272732  )
        14        Mo     tau(  14) = (   0.0000030   0.2886752  -0.2424042  )
        15        S      tau(  15) = (  -0.1249977   0.3608450  -0.3667802  )
        16        S      tau(  16) = (   0.0000012   0.2886747  -0.6030489  )
        17        S      tau(  17) = (   0.0000012   0.2886748  -0.8514963  )
        18        S      tau(  18) = (  -0.1249977   0.3608454  -0.1180274  )
        19        Mo     tau(  19) = (  -0.1249623   0.3608201   0.2425155  )
        20        Mo     tau(  20) = (  -0.0007801   0.2872696   0.7308518  )
        21        S      tau(  21) = (  -0.1240398   0.3604107   0.6055268  )
        22        S      tau(  22) = (   0.0000411   0.2886546   0.3669163  )
        23        S      tau(  23) = (   0.0000035   0.2886726   0.1180964  )
        24        S      tau(  24) = (  -0.1315418   0.3638985   0.8543850  )
        25        Mo     tau(  25) = (  -0.2499987   0.5773502  -0.7272732  )
        26        Mo     tau(  26) = (  -0.1249977   0.5051839  -0.2424055  )
        27        S      tau(  27) = (  -0.2499981   0.5773518  -0.3667809  )
        28        S      tau(  28) = (  -0.1249986   0.5051812  -0.6030489  )
        29        S      tau(  29) = (  -0.1249986   0.5051813  -0.8514963  )
        30        S      tau(  30) = (  -0.2499979   0.5773512  -0.1180266  )
        31        Mo     tau(  31) = (  -0.2499787   0.5773156   0.2425145  )
        32        Mo     tau(  32) = (  -0.1271807   0.5060660   0.7281741  )
        33        S      tau(  33) = (  -0.2502658   0.5775034   0.6017985  )
        34        S      tau(  34) = (  -0.1249543   0.5051367   0.3669386  )
        35        S      tau(  35) = (  -0.1249864   0.5051552   0.1181399  )
        36        S      tau(  36) = (  -0.2525628   0.5785576   0.8514793  )
        37        Mo     tau(  37) = (  -0.3749985   0.7938567  -0.7272732  )
        38        Mo     tau(  38) = (  -0.2500001   0.7216874  -0.2424031  )
        39        S      tau(  39) = (  -0.3749980   0.7938584  -0.3667800  )
        40        S      tau(  40) = (  -0.2499984   0.7216877  -0.6030489  )
        41        S      tau(  41) = (  -0.2499984   0.7216878  -0.8514963  )
        42        S      tau(  42) = (  -0.3749982   0.7938585  -0.1180264  )
        43        Mo     tau(  43) = (  -0.3750043   0.7938372   0.2424536  )
        44        Mo     tau(  44) = (  -0.2503619   0.7218808   0.7263407  )
        45        S      tau(  45) = (  -0.3755748   0.7941519   0.6023691  )
        46        S      tau(  46) = (  -0.2500067   0.7216811   0.3668312  )
        47        S      tau(  47) = (  -0.2499793   0.7216445   0.1181126  )
        48        S      tau(  48) = (  -0.3746959   0.7932047   0.8515893  )
        49        Mo     tau(  49) = (   0.2500010   0.1443372  -0.7272732  )
        50        Mo     tau(  50) = (   0.3750034   0.0721723  -0.2424032  )
        51        S      tau(  51) = (   0.2500017   0.1443391  -0.3667788  )
        52        S      tau(  52) = (   0.3750010   0.0721682  -0.6030489  )
        53        S      tau(  53) = (   0.3750010   0.0721683  -0.8514963  )
        54        S      tau(  54) = (   0.2500016   0.1443391  -0.1180271  )
        55        Mo     tau(  55) = (   0.2500033   0.1443124   0.2424881  )
        56        Mo     tau(  56) = (   0.3752595   0.0716472   0.7255395  )
        57        S      tau(  57) = (   0.2498544   0.1431280   0.6011361  )
        58        S      tau(  58) = (   0.3750516   0.0721435   0.3668117  )
        59        S      tau(  59) = (   0.3750079   0.0721203   0.1180977  )
        60        S      tau(  60) = (   0.2517312   0.1427646   0.8506906  )
[...]
       181        Mo     tau( 181) = (   0.3750016   0.7938567  -0.7272732  )
       182        Mo     tau( 182) = (   0.5000025   0.7216901  -0.2424039  )
       183        S      tau( 183) = (   0.3750019   0.7938578  -0.3667793  )
       184        S      tau( 184) = (   0.5000016   0.7216877  -0.6030489  )
       185        S      tau( 185) = (   0.5000016   0.7216878  -0.8514963  )
       186        S      tau( 186) = (   0.3750020   0.7938579  -0.1180272  )
       187        Mo     tau( 187) = (   0.3749951   0.7938323   0.2424893  )
       188        Mo     tau( 188) = (   0.4998599   0.7217391   0.7271366  )
       189        S      tau( 189) = (   0.3746033   0.7939741   0.6029663  )
       190        S      tau( 190) = (   0.4999946   0.7216688   0.3668260  )
       191        S      tau( 191) = (   0.4999891   0.7216628   0.1180901  )
       192        S      tau( 192) = (   0.3755955   0.7938624   0.8526444  )
       193        Pt     tau( 193) = (   0.1194898   0.4990527   0.9549993  )
       194        Pd     tau( 194) = (   0.0026419   0.2990244   0.9662205  )
       195        Pd     tau( 195) = (   0.1194768   0.4990893   1.1454222  )

     DFT-D3 Dispersion Correction (3-body terms):
       Reference C6 values for interpolation:

[...]
   -40.6621 -40.6621 -40.6620 -40.6617 -40.6612 -40.6612 -40.6612 -40.6612
   -40.6607 -40.6418 -40.6375 -40.6275 -40.6274 -40.6274 -40.6274 -40.6274
   -40.6274 -40.6274 -40.6274 -40.6265 -40.6265 -40.6265 -40.6265 -40.6229
   -40.6186 -40.6154 -40.6153 -40.6152 -40.6151 -40.6143 -40.6143 -40.6117
   -40.6030 -40.6016 -40.5963 -40.5959 -40.5959 -40.5956 -40.5950 -40.5950
   -40.5859 -40.5824 -40.5790 -40.5789 -40.5789 -40.5789 -40.5780 -40.5780
   -40.5776 -40.5601 -40.5485 -40.5483 -40.5483 -40.5481 -40.5479 -40.5473
   -40.5473 -40.5355 -40.5011 -20.0808 -19.8817 -19.8599 -19.8233 -19.7640
   -19.7299 -19.6544 -19.6397 -19.5392 -19.4682 -19.4230 -19.4096 -19.3349
   -19.3168 -19.2308 -19.2191 -19.1270 -18.8473 -18.8129 -18.7826 -18.7576
   -18.7349 -18.7156 -18.7103 -18.7094 -18.7012 -18.6932 -18.6567 -18.6472
   -18.6385 -18.6336 -18.6183 -18.5794 -18.5774 -18.5641 -18.5463 -18.5410
   -18.5392 -18.5374 -18.5145 -18.4883 -18.4813 -18.4788 -18.4698 -18.4590
   -18.4294 -18.4050 -18.4026 -18.3931 -18.3883 -18.3660 -18.3510 -18.3253
   -18.3181 -18.3089 -18.3047 -18.2559 -18.2382 -18.2297 -18.2252 -18.1991
   -18.1844 -18.1648 -18.1581 -18.1432 -18.1175 -18.1076 -18.1024 -18.0950
   -18.0933 -18.0901 -18.0879 -18.0697 -18.0669 -18.0658 -18.0629 -18.0596
   -18.0571 -18.0540 -18.0412 -18.0397 -18.0342 -18.0285 -18.0244 -18.0049
   -17.9992 -17.9951 -17.9924 -17.9921 -17.9891 -17.9856 -17.9820 -17.9791
   -17.9691 -17.9483 -17.9308 -17.9286 -17.9255 -17.9199 -17.9146 -17.8872
   -17.8799 -17.8737 -17.8697 -17.8449 -17.8417 -17.8344 -17.8322 -17.8281
   -17.8254 -17.8119 -17.8102 -17.8099 -17.8091 -17.8090 -17.8081 -17.7969
   -17.7951 -17.7779 -17.7750 -17.7538 -17.7515 -17.7349 -17.7326 -17.7194
   -17.7184 -17.7109 -17.7108 -12.1759 -11.9429 -11.7229 -11.7163 -11.6641
   -11.5885 -11.5124 -11.5108 -11.4949 -11.4906 -11.4793 -11.4776 -11.4731
   -11.4482 -11.4418 -11.4277 -11.3991 -11.3895 -11.3845 -11.3586 -11.3405
   -11.3339 -11.3290 -11.3100 -11.2974 -11.2887 -11.2833 -11.2681 -11.2555
   -11.2531 -11.2518 -11.2466 -11.2422 -11.2022 -11.1989 -11.1903 -11.1861
   -11.1723 -11.1634 -11.1622 -11.1590 -11.1471 -11.1415 -11.1380 -11.1312
   -11.1166 -11.1085 -11.0883 -11.0670 -11.0636 -11.0456 -11.0327 -10.9942
   -10.9782 -10.9515 -10.9390 -10.9302 -10.9185 -10.8956 -10.8884 -10.8786
   -10.8653 -10.8447 -10.8294 -10.8253 -10.8244 -10.8222 -10.8063 -10.8037
   -10.8029 -10.8014 -10.8008 -10.7967 -10.7931 -10.7895 -10.7878 -10.7832
[...]
    -3.3980  -3.3583  -3.3441  -3.3409  -3.3384  -3.3326  -3.3306  -3.3280
    -3.3272  -3.3139  -3.3034  -3.2870  -3.2821  -3.2762  -3.2715  -3.2685
    -3.2667  -3.2661  -3.2637  -3.2472  -3.2382  -3.2336  -3.2318  -3.2197
    -3.2174  -3.2143  -3.2077  -3.2015  -3.2004  -3.1904  -3.1831  -3.1789
    -3.1713  -3.1660  -3.1650  -3.1571  -3.1515  -3.1515  -3.1501  -3.1315
    -3.1254  -3.0997  -3.0834  -3.0796  -3.0629  -3.0576  -3.0566  -3.0474
    -3.0395  -3.0222  -3.0173  -3.0135  -3.0112  -3.0104  -3.0097  -3.0066
    -3.0015  -2.9991  -2.9956  -2.9939  -2.9879  -2.9815  -2.9771  -2.9735
    -2.9688  -2.9619  -2.9592  -2.9575  -2.9560  -2.9531  -2.9401  -2.9387
    -2.9354  -2.9315  -2.9287  -2.9237  -2.9214  -2.9168  -2.9013  -2.8938
    -2.8878  -2.8739  -2.8711  -2.8673  -2.8631  -2.8471  -2.8389  -2.7900
    -2.7839  -2.7765  -2.7719  -2.7203  -2.7150  -2.7101  -2.7046  -2.6159
    -2.6009  -2.5846  -2.5743  -2.5669  -2.5512  -2.5361  -2.5293  -2.5249
    -2.5210  -2.5184  -2.5155  -2.5154  -2.5012  -2.4070  -2.3978  -2.3940
    -2.3889  -2.3791  -2.3776  -2.3668  -2.3621  -2.3343  -2.3341

     the Fermi energy is    -4.8071 ev

!    total energy              =  -34492.24317888 Ry
     total all-electron energy =   -677498.122865 Ry
     estimated scf accuracy    <          8.9E-09 Ry
     smearing contrib. (-TS)   =      -0.00049579 Ry
     internal energy E=F+TS    =  -34492.24268308 Ry

     The total energy is F=E-TS. E is the sum of the following terms:
     one-electron contribution = 1202106.23848498 Ry
     hartree contribution      = -601231.13744856 Ry
     xc contribution           =   -2041.54700622 Ry
     ewald contribution        = -611762.20595631 Ry
     DFT-D3 Dispersion         =      -5.45168512 Ry
     one-center paw contrib.   =  -21558.13907186 Ry

     convergence has been achieved in  14 iterations

     negative rho (up, down):  9.231E-04 0.000E+00

     Forces acting on atoms (cartesian axes, Ry/au):

     atom    1 type  1   force =     0.00000179    0.00000013    0.00068557
     atom    2 type  1   force =     0.00004245    0.00002428    0.00001808
     atom    3 type  2   force =    -0.00000094   -0.00000594   -0.00000231
     atom    4 type  2   force =     0.00000007    0.00000031    0.00161406
     atom    5 type  2   force =    -0.00000019   -0.00000019   -0.00236168
     atom    6 type  2   force =     0.00002664    0.00004936    0.00010986
     atom    7 type  1   force =     0.00001094   -0.00004478   -0.00007747
     atom    8 type  1   force =    -0.00002407    0.00019396   -0.00006361
     atom    9 type  2   force =    -0.00022762    0.00001104   -0.00060810
     atom   10 type  2   force =     0.00001580   -0.00001101   -0.00010935
     atom   11 type  2   force =     0.00000122   -0.00004537   -0.00013115
     atom   12 type  2   force =     0.00011566   -0.00049578   -0.00023854
     atom   13 type  1   force =     0.00000233   -0.00000111    0.00068566
     atom   14 type  1   force =     0.00000503    0.00004332    0.00002293
     atom   15 type  2   force =     0.00000156   -0.00000609    0.00000020
     atom   16 type  2   force =     0.00000033    0.00000013    0.00161401
     atom   17 type  2   force =     0.00000002   -0.00000023   -0.00236230
     atom   18 type  2   force =     0.00002728    0.00005345    0.00010097
     atom   19 type  1   force =     0.00001487   -0.00006892   -0.00005344
     atom   20 type  1   force =    -0.00006962    0.00018292    0.00013576
     atom   21 type  2   force =     0.00008297    0.00018530   -0.00032027
     atom   22 type  2   force =     0.00000031   -0.00005171   -0.00004593
     atom   23 type  2   force =    -0.00000233   -0.00006757   -0.00008464
     atom   24 type  2   force =    -0.00039800    0.00032459   -0.00007208
     atom   25 type  1   force =     0.00000146   -0.00000081    0.00068527
     atom   26 type  1   force =     0.00001609    0.00002220    0.00003020
     atom   27 type  2   force =    -0.00000164   -0.00000449   -0.00000310
     atom   28 type  2   force =     0.00000031   -0.00000004    0.00161416
     atom   29 type  2   force =     0.00000014   -0.00000054   -0.00236220
     atom   30 type  2   force =     0.00002962    0.00004530    0.00010077
     atom   31 type  1   force =    -0.00001550   -0.00004124   -0.00007174
     atom   32 type  1   force =    -0.00018066    0.00036558   -0.00001860
     atom   33 type  2   force =    -0.00030519    0.00021025   -0.00036255
     atom   34 type  2   force =     0.00000527   -0.00003257   -0.00012721
     atom   35 type  2   force =    -0.00000475   -0.00008624   -0.00007856
     atom   36 type  2   force =    -0.00028345    0.00020291    0.00082997
     atom   37 type  1   force =     0.00000268   -0.00000019    0.00068541
     atom   38 type  1   force =     0.00004279    0.00005303    0.00001217
     atom   39 type  2   force =    -0.00000252   -0.00000521    0.00000096
     atom   40 type  2   force =     0.00000025    0.00000022    0.00161408
     atom   41 type  2   force =    -0.00000004   -0.00000041   -0.00236171
     atom   42 type  2   force =     0.00002620    0.00005262    0.00010518
     atom   43 type  1   force =     0.00001094   -0.00001580   -0.00006150
     atom   44 type  1   force =     0.00028933    0.00000757    0.00032734
     atom   45 type  2   force =     0.00020428    0.00030507    0.00057186
     atom   46 type  2   force =     0.00000548   -0.00006281   -0.00003304
     atom   47 type  2   force =    -0.00000820   -0.00000539   -0.00005222
     atom   48 type  2   force =    -0.00027398    0.00013696   -0.00005755
     atom   49 type  1   force =     0.00000131   -0.00000041    0.00068562
     atom   50 type  1   force =    -0.00000942    0.00000422    0.00001497
     atom   51 type  2   force =    -0.00000304   -0.00000349    0.00000175
     atom   52 type  2   force =    -0.00000017    0.00000015    0.00161425
     atom   53 type  2   force =    -0.00000031   -0.00000032   -0.00236157
     atom   54 type  2   force =     0.00002319    0.00005123    0.00009987
     atom   55 type  1   force =     0.00002535   -0.00007339   -0.00006736
     atom   56 type  1   force =     0.00038994   -0.00011880    0.00020256
     atom   57 type  2   force =     0.00039475   -0.00049288    0.00032931
     atom   58 type  2   force =     0.00000023   -0.00005058   -0.00001441
     atom   59 type  2   force =     0.00001624   -0.00005169   -0.00008554
     atom   60 type  2   force =     0.00042247    0.00003447   -0.00010781
[...]
     atom  181 type  1   force =     0.00000193   -0.00000068    0.00068530
     atom  182 type  1   force =     0.00000671    0.00002157    0.00001910
     atom  183 type  2   force =    -0.00000478   -0.00000785   -0.00000004
     atom  184 type  2   force =     0.00000008    0.00000009    0.00161418
     atom  185 type  2   force =    -0.00000011   -0.00000041   -0.00236165
     atom  186 type  2   force =     0.00002501    0.00005106    0.00009871
     atom  187 type  1   force =    -0.00001025   -0.00003496   -0.00005654
     atom  188 type  1   force =    -0.00018772   -0.00018188   -0.00002564
     atom  189 type  2   force =    -0.00033565    0.00012042    0.00014009
     atom  190 type  2   force =     0.00002040   -0.00001956   -0.00008025
     atom  191 type  2   force =    -0.00000881   -0.00005447   -0.00007110
     atom  192 type  2   force =    -0.00007189   -0.00035594    0.00020240
     atom  193 type  3   force =    -0.00012693   -0.00030133   -0.00042026
     atom  194 type  4   force =     0.00012672   -0.00027498    0.00058869
     atom  195 type  4   force =    -0.00019209    0.00021306   -0.00037359

     Total force =     0.003320     Total SCF correction =     0.000555
     SCF correction compared to forces is large: reduce conv_thr to get better values
     Energy error            =      2.7E-05 Ry
     Gradient error          =      8.3E-04 Ry/Bohr

     bfgs converged in  56 scf cycles and  55 bfgs steps
     (criteria: energy <  1.0E-04 Ry, force <  1.0E-03 Ry/Bohr)

     End of BFGS Geometry Optimization

     Final energy             =  -34492.2431788770 Ry

     File ./outdir/pwscf.bfgs deleted, as requested
Begin final coordinates

ATOMIC_POSITIONS (angstrom)
Mo               0.0000119917        1.8193638619       -9.1672481230    0   0   0
Mo               1.5756136568        0.9097075315       -3.0554901653    0   0   0
S                0.0000188998        1.8193822938       -4.6232556019    0   0   0
S                1.5756321638        0.9096773839       -7.6014065489    0   0   0
S                1.5756326175        0.9096785128      -10.7330757790    0   0   0
S                0.0000189190        1.8193860094       -1.4877129945    0   0   0
Mo               0.0061238988        1.8321515738        3.0634451799
Mo               1.5937807657        0.9083097401        9.1705079749
S                0.0124155676        1.8427248013        7.6301725412
S                1.5812978643        0.9221832658        4.6311765579
S                1.5816212852        0.9221619796        1.4958082822
S                0.0055632868        1.7068399024       10.7972590670
Mo              -1.5756053507        4.5484193819       -9.1672481230    0   0   0
Mo               0.0000378379        3.6387394919       -3.0554952701    0   0   0
S               -1.5755913433        4.5484363582       -4.6232494962    0   0   0
S                0.0000148214        3.6387329039       -7.6014065489    0   0   0
S                0.0000152751        3.6387340328      -10.7330757790    0   0   0
S               -1.5755906502        4.5484413613       -1.4877305502    0   0   0
Mo              -1.5689794105        4.5607798998        3.0637867162
Mo              -0.0009174153        3.6220551486        9.2252861453
S               -1.5447901272        4.5495567880        7.6373364952
S                0.0069274343        3.6515709823        4.6317990686
S                0.0059237346        3.6511758103        1.4954282299
S               -1.6433083317        4.5833437441       10.7716734305
Mo              -3.1512226931        7.2774749019       -9.1672481230    0   0   0
Mo              -1.5755910988        6.3678216792       -3.0555115988    0   0   0
S               -3.1512162438        7.2774954350       -4.6232578178    0   0   0
S               -1.5756025210        6.3677884239       -7.6014065489    0   0   0
S               -1.5756020673        6.3677895528      -10.7330757790    0   0   0
S               -3.1512127704        7.2774877076       -1.4877200710    0   0   0
Mo              -3.1447056713        7.2895289417        3.0637338653
Mo              -1.5827749191        6.3862361380        9.1844570996
S               -3.1320233666        7.2797666230        7.5875401062
S               -1.5684718177        6.3798899486        4.6320888222
S               -1.5694220155        6.3799636152        1.4958274903
S               -3.1644857138        7.2983980884       10.7336366197
Mo              -4.7268400355       10.0065304219       -9.1672481230    0   0   0
Mo              -3.1512405618        9.0968403586       -3.0554816746    0   0   0
S               -4.7268341792       10.0065523623       -4.6232463762    0   0   0
S               -3.1512198634        9.0968439439       -7.6014065489    0   0   0
S               -3.1512194097        9.0968450728      -10.7330757790    0   0   0
S               -4.7268370797       10.0065537885       -1.4877176751    0   0   0
Mo              -4.7207552919       10.0187928340        3.0631871601
Mo              -3.1410331388        9.1033559266        9.1526721615
S               -4.7186644440       10.0159430182        7.5882048795
S               -3.1449073299        9.1092031579        4.6307204583
S               -3.1450198601        9.1087442351        1.4955985029
S               -4.7071422126        9.9997244752       10.7305412996
Mo               3.1512517547        1.8193638619       -9.1672481230    0   0   0
Mo               4.7269020221        0.9097289540       -3.0554823951    0   0   0
S                3.1512612351        1.8193882564       -4.6232320683    0   0   0
S                4.7268719268        0.9096773839       -7.6014065489    0   0   0
S                4.7268723805        0.9096785128      -10.7330757790    0   0   0
S                3.1512592485        1.8193890201       -1.4877261251    0   0   0
Mo               3.1571005002        1.8319699864        3.0637039893
Mo               4.7378789165        0.9138559429        9.1518655527
S                3.1596873269        1.8272466466        7.5878949601
S                4.7332092301        0.9220294855        4.6304842545
S                4.7326315375        0.9218902995        1.4956440585
S                3.1776799819        1.8049177210       10.7348833948
[...]
Mo               4.7268792535       10.0065304219       -9.1672481230    0   0   0
Mo               6.3025111524        9.0968738021       -3.0554915260    0   0   0
S                4.7268840634       10.0065452125       -4.6232380477    0   0   0
S                6.3024994256        9.0968439439       -7.6014065489    0   0   0
S                6.3024998793        9.0968450728      -10.7330757790    0   0   0
S                4.7268847312       10.0065459141       -1.4877283294    0   0   0
Mo               4.7329950858       10.0187541926        3.0634361384
Mo               6.3146975737        9.1049975316        9.1613675838
S                4.7353942523       10.0121295522        7.5922238325
S                6.3085996088        9.1089444855        4.6305405693
S                6.3084924376        9.1091833763        1.4953483940
S                4.7451791772       10.0152973481       10.7395326614
Pt               1.5779790845        6.3283130608       12.0703908547
Pd               0.0522812776        3.6446820886       12.1555274654
Pd               0.4176632067        5.3118690818       14.1006421647
End final coordinates

     Writing all to output data dir ./outdir/pwscf.save/ :
     XML data file, charge density, pseudopotentials, collected wavefunctions

     General routines

     Parallel routines

   This run was terminated on:  11:23:11   7May2024

   JOB DONE.