     Program PWSCF v.7.2 starts on 13Aug2023 at 15:54: 0

     Waiting for input...
     Reading input from standard input
Warning: card &CELL ignored
Warning: card / ignored

     Current dimensions of program PWSCF are:
     Max number of different atomic species (ntypx) = 10
     Max number of k-points (npk) =  40000
     Max angular momentum in pseudopotentials (lmaxx) =  4
     file Mo.pbe-spn-kjpaw_psl.1.0.0.UPF: wavefunction(s)  4S 4D renormalized
     file S.pbe-n-kjpaw_psl.1.0.0.UPF: wavefunction(s)  3S 3P renormalized
     file H.pbe-kjpaw_psl.1.0.0.UPF: wavefunction(s)  1S renormalized

     R & G space division:  proc/nbgrp/npool/nimage =      36
     Subspace diagonalization in iterative solution of the eigenvalue problem:
     one sub-group per band group will be used

     Using Slab Decomposition

     bravais-lattice index     =            0
     lattice parameter (alat)  =      23.8395  a.u.
     unit-cell volume          =   28182.8498 (a.u.)^3
     number of atoms/cell      =          145
     number of atomic types    =            3
     number of electrons       =      1249.00
     number of Kohn-Sham states=          750
     kinetic-energy cutoff     =      77.0000  Ry
     charge density cutoff     =     539.0000  Ry
     scf convergence threshold =      1.0E-06
     mixing beta               =       0.2000
     number of iterations used =            8  plain     mixing
     energy convergence thresh.=      1.0E-04
     force convergence thresh. =      1.0E-03
     Exchange-correlation= SLA  PW   PBX  PBC
                           (   1   4   3   4   0   0   0)
     nstep                     =         1000

     Effective Screening Medium Method
     Boundary Conditions: Vacuum-Slab-Vacuum
     total charge in unit cell        =   0.0000
     grid points for fit at edges     =        4

     celldm(1)=  23.839504  celldm(2)=   0.000000  celldm(3)=   0.000000
     celldm(4)=   0.000000  celldm(5)=   0.000000  celldm(6)=   0.000000

     crystal axes: (cart. coord. in units of alat)
               a(1) = (   1.000000   0.000000   0.000000 )
               a(2) = (  -0.500001   0.866026   0.000000 )
               a(3) = (   0.000000   0.000000   2.401941 )

     reciprocal axes: (cart. coord. in units 2 pi/alat)
               b(1) = (  1.000000  0.577351  0.000000 )
               b(2) = (  0.000000  1.154700  0.000000 )
               b(3) = (  0.000000  0.000000  0.416330 )

     PseudoPot. # 1 for Mo read from file:
     ./pseudo/Mo.pbe-spn-kjpaw_psl.1.0.0.UPF
     MD5 check sum: 317bf72632116215fd98f72de1686f13
     Pseudo is Projector augmented-wave + core cor, Zval = 14.0
     Generated using 'atomic' code by A. Dal Corso  v.7.2
     Shape of augmentation charge: PSQ
     Using radial grid of 1229 points,  6 beta functions with:
                l(1) =   0
                l(2) =   0
                l(3) =   1
                l(4) =   1
                l(5) =   2
                l(6) =   2
     Q(r) pseudized with 0 coefficients

     PseudoPot. # 2 for S  read from file:
     ./pseudo/S.pbe-n-kjpaw_psl.1.0.0.UPF
     MD5 check sum: 8b7b5302570d38d5e87fed6a1065abda
     Pseudo is Projector augmented-wave + core cor, Zval =  6.0
     Generated using 'atomic' code by A. Dal Corso  v.7.2
     Shape of augmentation charge: PSQ
     Using radial grid of 1151 points,  6 beta functions with:
                l(1) =   0
                l(2) =   0
                l(3) =   1
                l(4) =   1
                l(5) =   2
                l(6) =   2
     Q(r) pseudized with 0 coefficients

     PseudoPot. # 3 for H  read from file:
     ./pseudo/H.pbe-kjpaw_psl.1.0.0.UPF
     MD5 check sum: b3cb3c48ee3b58cc53e4d592112d0ca6
     Pseudo is Projector augmented-wave, Zval =  1.0
     Generated using 'atomic' code by A. Dal Corso  v.7.2
     Shape of augmentation charge: PSQ
     Using radial grid of  929 points,  2 beta functions with:
                l(1) =   0
                l(2) =   0
     Q(r) pseudized with 0 coefficients

     atomic species   valence    mass     pseudopotential
        Mo            14.00    95.95000     Mo( 1.00)
        S              6.00    32.06000     S ( 1.00)
        H              1.00     1.00800     H ( 1.00)

     No symmetry found

   Cartesian axes

     site n.     atom                  positions (alat units)
         1           Mo  tau(   1) = (   0.1249983   0.2165050   0.4823527  )
         2           Mo  tau(   2) = (   0.1250004   0.0721694  -0.4825273  )
         3           Mo  tau(   3) = (  -0.0000019   0.1443377  -0.0000751  )
         4           S   tau(   4) = (   0.0000004   0.0000006  -0.6064556  )
         5           S   tau(   5) = (   0.1249982   0.0721692  -0.1241671  )
         6           S   tau(   6) = (  -0.0000016   0.1443364   0.3582431  )
         7           S   tau(   7) = (   0.0000004   0.0000005  -0.3584711  )
         8           S   tau(   8) = (   0.1249982   0.0721691   0.1241550  )
         9           S   tau(   9) = (  -0.0000015   0.1443364   0.6067201  )
        10           Mo  tau(  10) = (  -0.0000021   0.4330115   0.4823527  )
        11           Mo  tau(  11) = (   0.0000001   0.2886759  -0.4825273  )
        12           Mo  tau(  12) = (  -0.1250009   0.3608432  -0.0000744  )
        13           S   tau(  13) = (  -0.1249999   0.2165071  -0.6064556  )
        14           S   tau(  14) = (  -0.0000017   0.2886753  -0.1241667  )
        15           S   tau(  15) = (  -0.1250020   0.3608427   0.3582430  )
        16           S   tau(  16) = (  -0.1249998   0.2165070  -0.3584711  )
        17           S   tau(  17) = (  -0.0000017   0.2886752   0.1241551  )
        18           S   tau(  18) = (  -0.1250020   0.3608428   0.6067200  )
        19           Mo  tau(  19) = (  -0.1250025   0.6495181   0.4823527  )
        20           Mo  tau(  20) = (  -0.1250002   0.5051824  -0.4825273  )
        21           Mo  tau(  21) = (  -0.2500019   0.5773502  -0.0000747  )
        22           S   tau(  22) = (  -0.2500002   0.4330136  -0.6064556  )
        23           S   tau(  23) = (  -0.1250019   0.5051815  -0.1241659  )
        24           S   tau(  24) = (  -0.2500023   0.5773492   0.3582430  )
        25           S   tau(  25) = (  -0.2500001   0.4330135  -0.3584711  )
        26           S   tau(  26) = (  -0.1250021   0.5051816   0.1241548  )
        27           S   tau(  27) = (  -0.2500023   0.5773492   0.6067201  )
        28           Mo  tau(  28) = (   0.2499985  -0.0000014   0.4823528  )
        29           Mo  tau(  29) = (  -0.2500004   0.7216889  -0.4825273  )
        30           Mo  tau(  30) = (  -0.3750035   0.7938587  -0.0000751  )
        31           S   tau(  31) = (  -0.3750004   0.6495201  -0.6064556  )
        32           S   tau(  32) = (  -0.2500024   0.7216883  -0.1241659  )
        33           S   tau(  33) = (  -0.3750023   0.7938557   0.3582430  )
        34           S   tau(  34) = (  -0.3750004   0.6495200  -0.3584711  )
        35           S   tau(  35) = (  -0.2500028   0.7216884   0.1241544  )
        36           S   tau(  36) = (  -0.3750023   0.7938556   0.6067199  )
        37           Mo  tau(  37) = (   0.3749981   0.2165050   0.4823525  )
        38           Mo  tau(  38) = (   0.3750004   0.0721694  -0.4825273  )
        39           Mo  tau(  39) = (   0.2499973   0.1443382  -0.0000750  )
        40           S   tau(  40) = (   0.2500004   0.0000006  -0.6064556  )
        41           S   tau(  41) = (   0.3749982   0.0721689  -0.1241664  )
        42           S   tau(  42) = (   0.2499983   0.1443364   0.3582430  )
        43           S   tau(  43) = (   0.2500004   0.0000005  -0.3584711  )
        44           S   tau(  44) = (   0.3749982   0.0721692   0.1241548  )
        45           S   tau(  45) = (   0.2499984   0.1443363   0.6067201  )
        46           Mo  tau(  46) = (   0.2499981   0.4330115   0.4823527  )
        47           Mo  tau(  47) = (   0.2500001   0.2886759  -0.4825273  )
        48           Mo  tau(  48) = (   0.1249978   0.3608446  -0.0000747  )
        49           S   tau(  49) = (   0.1250001   0.2165071  -0.6064556  )
        50           S   tau(  50) = (   0.2499977   0.2886754  -0.1241668  )
        51           S   tau(  51) = (   0.1249981   0.3608427   0.3582430  )
        52           S   tau(  52) = (   0.1250002   0.2165070  -0.3584711  )
        53           S   tau(  53) = (   0.2499978   0.2886754   0.1241550  )
        54           S   tau(  54) = (   0.1249981   0.3608427   0.6067200  )
        55           Mo  tau(  55) = (   0.1249976   0.6495181   0.4823528  )
        56           Mo  tau(  56) = (   0.1249998   0.5051824  -0.4825273  )
        57           Mo  tau(  57) = (  -0.0000011   0.5773502  -0.0000746  )
        58           S   tau(  58) = (  -0.0000002   0.4330136  -0.6064556  )
        59           S   tau(  59) = (   0.1249978   0.5051816  -0.1241667  )
        60           S   tau(  60) = (  -0.0000023   0.5773491   0.3582431  )
[...]
       131           S   tau( 131) = (   0.6249978   0.5051817  -0.1241660  )
       132           S   tau( 132) = (   0.4999980   0.5773491   0.3582431  )
       133           S   tau( 133) = (   0.4999999   0.4330135  -0.3584711  )
       134           S   tau( 134) = (   0.6249975   0.5051818   0.1241544  )
       135           S   tau( 135) = (   0.4999981   0.5773491   0.6067201  )
       136           Mo  tau( 136) = (  -0.0000012  -0.0000013   0.4823527  )
       137           Mo  tau( 137) = (   0.4999996   0.7216889  -0.4825273  )
       138           Mo  tau( 138) = (   0.3749969   0.7938580  -0.0000749  )
       139           S   tau( 139) = (   0.3749996   0.6495201  -0.6064556  )
       140           S   tau( 140) = (   0.4999973   0.7216884  -0.1241666  )
       141           S   tau( 141) = (   0.3749976   0.7938558   0.3582430  )
       142           S   tau( 142) = (   0.3749996   0.6495200  -0.3584711  )
       143           S   tau( 143) = (   0.4999974   0.7216884   0.1241546  )
       144           S   tau( 144) = (   0.3749976   0.7938557   0.6067202  )
       145           H   tau( 145) = (   0.1250067   0.5051793   0.6780643  )

     DFT-D3 Dispersion Correction (3-body terms):
       Reference C6 values for interpolation:

         atom   Coordination number   C6
         H          0.912             6.05
         H          0.000            15.18
         S          0.000           268.01
         S          0.995           261.99
         S          1.990           251.62
         Mo         0.000          1691.79
         Mo         1.942          1004.01
         Mo        11.056           674.22

       Values used:

         atom   Coordination number  R0_AB[au]  C6      C8
         Mo        10.187            3.547    674.22  77634.20
         Mo        10.189            3.547    674.22  77634.20
         Mo        10.201            3.547    674.22  77634.20
         S          3.753            3.128    251.62  12327.25
         S          3.858            3.128    251.62  12327.25
         S          3.857            3.128    251.62  12327.25
[...]
     atom   13 type  2   force =     0.00000000    0.00000000    0.00000000
     atom   14 type  2   force =     0.00000164    0.00000407   -0.00001005
     atom   15 type  2   force =    -0.00000656   -0.00000087   -0.00001487
     atom   16 type  2   force =     0.00000000    0.00000000    0.00000000
     atom   17 type  2   force =    -0.00000031    0.00000437   -0.00000829
     atom   18 type  2   force =    -0.00001009   -0.00000296    0.00000076
     atom   19 type  1   force =    -0.00003567    0.00002135   -0.00006863
     atom   20 type  1   force =     0.00000000    0.00000000    0.00000000
     atom   21 type  1   force =     0.00001444   -0.00000732   -0.00003689
     atom   22 type  2   force =     0.00000000    0.00000000    0.00000000
     atom   23 type  2   force =     0.00000329    0.00000134   -0.00000672
     atom   24 type  2   force =    -0.00001060   -0.00000065   -0.00000623
     atom   25 type  2   force =     0.00000000    0.00000000    0.00000000
     atom   26 type  2   force =     0.00000237   -0.00000012   -0.00001045
     atom   27 type  2   force =    -0.00002290    0.00000663   -0.00000731
     atom   28 type  1   force =     0.00006779    0.00002748   -0.00000809
     atom   29 type  1   force =     0.00000000    0.00000000    0.00000000
     atom   30 type  1   force =     0.00000547   -0.00000403   -0.00003775
     atom   31 type  2   force =     0.00000000    0.00000000    0.00000000
     atom   32 type  2   force =     0.00000562   -0.00000331   -0.00001117
     atom   33 type  2   force =     0.00000152   -0.00000215   -0.00002702
     atom   34 type  2   force =     0.00000000    0.00000000    0.00000000
     atom   35 type  2   force =     0.00000264   -0.00000176   -0.00000216
     atom   36 type  2   force =     0.00000253   -0.00000179    0.00001809
     atom   37 type  1   force =     0.00003420   -0.00004635   -0.00003688
     atom   38 type  1   force =     0.00000000    0.00000000    0.00000000
     atom   39 type  1   force =     0.00000484    0.00001028   -0.00003833
     atom   40 type  2   force =     0.00000000    0.00000000    0.00000000
     atom   41 type  2   force =     0.00000194   -0.00000135   -0.00001075
     atom   42 type  2   force =     0.00000852   -0.00001184   -0.00000922
     atom   43 type  2   force =     0.00000000    0.00000000    0.00000000
     atom   44 type  2   force =     0.00000172   -0.00000190   -0.00000352
     atom   45 type  2   force =     0.00000934   -0.00002684   -0.00000352
     atom   46 type  1   force =     0.00001620   -0.00000703   -0.00004022
     atom   47 type  1   force =     0.00000000    0.00000000    0.00000000
     atom   48 type  1   force =    -0.00000331    0.00001703   -0.00003799
     atom   49 type  2   force =     0.00000000    0.00000000    0.00000000
     atom   50 type  2   force =    -0.00000267    0.00000257   -0.00001018
     atom   51 type  2   force =    -0.00000166   -0.00000907   -0.00001983
     atom   52 type  2   force =     0.00000000    0.00000000    0.00000000
     atom   53 type  2   force =    -0.00000044    0.00000306   -0.00000840
     atom   54 type  2   force =    -0.00000173    0.00001557    0.00001016
     atom   55 type  1   force =    -0.00000876    0.00002297   -0.00003868
     atom   56 type  1   force =     0.00000000    0.00000000    0.00000000
     atom   57 type  1   force =     0.00000935   -0.00000400   -0.00003800
     atom   58 type  2   force =     0.00000000    0.00000000    0.00000000
     atom   59 type  2   force =    -0.00000167    0.00000143   -0.00000181
     atom   60 type  2   force =    -0.00001123    0.00000686   -0.00001613
[...]
     atom  131 type  2   force =     0.00000157   -0.00000053   -0.00001099
     atom  132 type  2   force =     0.00001423   -0.00000099   -0.00000895
     atom  133 type  2   force =     0.00000000    0.00000000    0.00000000
     atom  134 type  2   force =     0.00000203    0.00000011   -0.00000306
     atom  135 type  2   force =     0.00002778    0.00000567   -0.00000427
     atom  136 type  1   force =    -0.00006119    0.00003375   -0.00001015
     atom  137 type  1   force =     0.00000000    0.00000000    0.00000000
     atom  138 type  1   force =    -0.00001521   -0.00000562   -0.00003761
     atom  139 type  2   force =     0.00000000    0.00000000    0.00000000
     atom  140 type  2   force =    -0.00000354   -0.00000296   -0.00001351
     atom  141 type  2   force =     0.00000413    0.00001112   -0.00000978
     atom  142 type  2   force =     0.00000000    0.00000000    0.00000000
     atom  143 type  2   force =    -0.00000026   -0.00000125   -0.00000060
     atom  144 type  2   force =     0.00001667    0.00001990   -0.00000353
     atom  145 type  3   force =    -0.00000033    0.00000025    0.00000083

     DFT-D3 dispersion contribution to forces:
     atom    1 type  1   force =     0.00000001    0.00015044   -0.00253835
     atom    2 type  1   force =    -0.00000000    0.00000000    0.00260449
     atom    3 type  1   force =     0.00000068    0.00000121   -0.00002914
     atom    4 type  2   force =    -0.00000002    0.00000001    0.00441240
     atom    5 type  2   force =    -0.00000000    0.00000027   -0.00004773
     atom    6 type  2   force =    -0.00001079   -0.00001131   -0.00021983
     atom    7 type  2   force =     0.00000002   -0.00000001    0.00023508
     atom    8 type  2   force =     0.00000000   -0.00000044    0.00008801
     atom    9 type  2   force =     0.00002670    0.00007601   -0.00440357
     atom   10 type  1   force =     0.00005263    0.00003039   -0.00252875
     atom   11 type  1   force =     0.00000000    0.00000005    0.00260450
     atom   12 type  1   force =     0.00000095    0.00000053   -0.00002986
     atom   13 type  2   force =     0.00000000   -0.00000000    0.00441239
     atom   14 type  2   force =     0.00000012    0.00000005   -0.00004731
     atom   15 type  2   force =     0.00001675    0.00000968   -0.00019446
     atom   16 type  2   force =    -0.00000002    0.00000001    0.00023510
     atom   17 type  2   force =     0.00000071   -0.00000027    0.00008578
     atom   18 type  2   force =     0.00016977    0.00009802   -0.00436288
     atom   19 type  1   force =     0.00013027   -0.00007522   -0.00253836
     atom   20 type  1   force =     0.00000004   -0.00000002    0.00260450
     atom   21 type  1   force =     0.00000138   -0.00000001   -0.00002914
     atom   22 type  2   force =    -0.00000000    0.00000000    0.00441239
     atom   23 type  2   force =     0.00000011    0.00000007   -0.00004732
     atom   24 type  2   force =    -0.00001516   -0.00000368   -0.00021982
     atom   25 type  2   force =     0.00000000   -0.00000003    0.00023509
     atom   26 type  2   force =     0.00000012    0.00000075    0.00008579
     atom   27 type  2   force =     0.00007915   -0.00001488   -0.00440358
     atom   28 type  1   force =    -0.00000092   -0.00000055   -0.00265590
     atom   29 type  1   force =    -0.00000000   -0.00000000    0.00260448
     atom   30 type  1   force =    -0.00000001    0.00000001   -0.00002778
     atom   31 type  2   force =     0.00000000   -0.00000002    0.00441240
     atom   32 type  2   force =     0.00000027   -0.00000015   -0.00004773
     atom   33 type  2   force =     0.00000001    0.00000000   -0.00021337
     atom   34 type  2   force =    -0.00000000    0.00000002    0.00023507
     atom   35 type  2   force =    -0.00000038    0.00000022    0.00008801
     atom   36 type  2   force =     0.00000001   -0.00000000   -0.00441627
     atom   37 type  1   force =    -0.00003771    0.00003883   -0.00261537
     atom   38 type  1   force =     0.00000001    0.00000001    0.00260447
     atom   39 type  1   force =    -0.00000069    0.00000122   -0.00002914
     atom   40 type  2   force =     0.00000002    0.00000001    0.00441240
     atom   41 type  2   force =     0.00000012    0.00000008   -0.00004784
     atom   42 type  2   force =     0.00001078   -0.00001130   -0.00021984
     atom   43 type  2   force =    -0.00000002   -0.00000001    0.00023507
     atom   44 type  2   force =    -0.00000049   -0.00000028    0.00008965
     atom   45 type  2   force =    -0.00002669    0.00007602   -0.00440357
     atom   46 type  1   force =    -0.00005260    0.00003037   -0.00252882
     atom   47 type  1   force =    -0.00000000    0.00000005    0.00260450
     atom   48 type  1   force =    -0.00000000   -0.00000003   -0.00002912
     atom   49 type  2   force =     0.00000000    0.00000000    0.00441237
     atom   50 type  2   force =    -0.00000011    0.00000006   -0.00004731
     atom   51 type  2   force =     0.00000000    0.00005445   -0.00009314
     atom   52 type  2   force =    -0.00000000    0.00000006    0.00023521
     atom   53 type  2   force =    -0.00000071   -0.00000028    0.00008579
     atom   54 type  2   force =    -0.00000034   -0.00295739   -0.00585072
     atom   55 type  1   force =    -0.00000000   -0.00006076   -0.00252878
     atom   56 type  1   force =    -0.00000000   -0.00000000    0.00260457
     atom   57 type  1   force =    -0.00000001    0.00000000   -0.00002912
     atom   58 type  2   force =     0.00000001    0.00000000    0.00441239
     atom   59 type  2   force =     0.00000001   -0.00000000   -0.00004772
     atom   60 type  2   force =     0.00004715   -0.00002722   -0.00009316
[...]
     atom  131 type  2   force =     0.00000000   -0.00000014   -0.00004784
     atom  132 type  2   force =     0.00001519   -0.00000368   -0.00021985
     atom  133 type  2   force =    -0.00000001   -0.00000002    0.00023509
     atom  134 type  2   force =    -0.00000000    0.00000056    0.00008965
     atom  135 type  2   force =    -0.00007920   -0.00001489   -0.00440357
     atom  136 type  1   force =     0.00000094   -0.00000053   -0.00265591
     atom  137 type  1   force =    -0.00000000   -0.00000000    0.00260449
     atom  138 type  1   force =    -0.00000071   -0.00000119   -0.00002915
     atom  139 type  2   force =    -0.00000000   -0.00000000    0.00441237
     atom  140 type  2   force =    -0.00000025   -0.00000014   -0.00004772
     atom  141 type  2   force =     0.00000440    0.00001502   -0.00021984
     atom  142 type  2   force =    -0.00000005   -0.00000003    0.00023521
     atom  143 type  2   force =     0.00000038    0.00000022    0.00008800
     atom  144 type  2   force =    -0.00005249   -0.00006114   -0.00440357
     atom  145 type  3   force =    -0.00000522    0.00000060    0.00306419

     Total force =     0.002974     Total SCF correction =     0.000325
     SCF correction compared to forces is large: reduce conv_thr to get better values
     Energy error            =      3.0E-05 Ry
     Gradient error          =      7.7E-04 Ry/Bohr

     bfgs converged in   8 scf cycles and   7 bfgs steps
     (criteria: energy <  1.0E-04 Ry, force <  1.0E-03 Ry/Bohr)

     End of BFGS Geometry Optimization

     Final energy             =  -23846.2455425397 Ry

     File ./outdir/pwscf.bfgs deleted, as requested
Begin final coordinates

ATOMIC_POSITIONS (angstrom)
Mo            1.5768925844        2.7333792548        6.0805215157
Mo            1.5769197498        0.9104407117       -6.0872367793    0   0   0
Mo            0.0000552239        1.8208445796       -0.0011084032
S             0.0000044503        0.0000077495       -7.6506323570    0   0   0
S             1.5768950199        0.9103285329       -1.5664426202
S             0.0029903298        1.8202385675        4.5178217686
S             0.0000053241        0.0000068460       -4.5222282367    0   0   0
S             1.5768911734        0.9105811899        1.5661757759
S             0.0034951290        1.8244235198        7.6537657496
Mo            0.0002061182        5.4627180061        6.0782069754
Mo            0.0000011799        3.6417399547       -6.0872367793    0   0   0
Mo           -1.5769894741        4.5521317571       -0.0009118983
S            -1.5769141197        2.7313069925       -7.6506323570    0   0   0
S            -0.0000199710        3.6417508192       -1.5664141330
S            -1.5836856792        4.5482516185        4.5141414812
S            -1.5769132459        2.7313060890       -4.5222282367    0   0   0
S             0.0000016004        3.6417694900        1.5662374460
S            -1.5770112982        4.5521066924        7.6518738394
Mo           -1.5751264564        8.1928297873        6.0805248466
Mo           -1.5769173901        6.3730391977       -6.0872367793    0   0   0
Mo           -3.1538391898        7.2835374320       -0.0011062838
S            -3.1538326896        5.4626062355       -7.6506323570    0   0   0
S            -1.5769226051        6.3730168768       -1.5664074959
S            -3.1528807269        7.2863582516        4.5178192978
S            -3.1538318159        5.4626053320       -4.5222282367    0   0   0
S            -1.5768937859        6.3730245587        1.5662335561
S            -3.1490070315        7.2847034704        7.6537654844
Mo            3.1540595112        0.0001247362        6.0849770024
Mo           -3.1538359601        9.1043384407       -6.0872367793    0   0   0
Mo           -4.7307775051       10.0147659546       -0.0008158308
S            -4.7307512596        8.1939054785       -7.6506323570    0   0   0
S            -3.1539515947        9.1043844498       -1.5664403679
S            -4.7307769393       10.0147460947        4.5199910953
S            -4.7307503859        8.1939045750       -4.5222282367    0   0   0
S            -3.1537344341        9.1042583363        1.5661770479
S            -4.7307759309       10.0147452753        7.6522912770
Mo            4.7271314897        2.7318572499        6.0846782557
Mo            4.7307503218        0.9104407117       -6.0872367793    0   0   0
Mo            3.1537317505        1.8208453332       -0.0011080840
S             3.1538350223        0.0000077495       -7.6506323570    0   0   0
S             4.7307224431        0.9104323267       -1.5665250076
S             3.1507971714        1.8202388795        4.5178204783
S             3.1538358961        0.0000068460       -4.5222282367    0   0   0
S             4.7308062276        0.9104796814        1.5658908573
S             3.1502925409        1.8244225110        7.6537653709
Mo            3.1535689725        5.4627152429        6.0782045434
Mo            3.1538317519        3.6417399547       -6.0872367793    0   0   0
Mo            1.5768896602        4.5523936147       -0.0011127391
S             1.5769164523        2.7313069925       -7.6506323570    0   0   0
S             3.1538027863        3.6417509441       -1.5664119652
S             1.5768914348        4.5490349707        4.5149229239
S             1.5769173261        2.7313060890       -4.5222282367    0   0   0
S             3.1537847667        3.6417750172        1.5662351056
S             1.5768910448        4.6219373117        7.6794672577
Mo            1.5768818534        8.1936080242        6.0782066947
Mo            1.5769131819        6.3730391977       -6.0872367793    0   0   0
Mo            0.0001723865        7.2833504528       -0.0011111318
S            -0.0000021176        5.4626062355       -7.6506323570    0   0   0
S             1.5768859788        6.3730324990       -1.5668067950
S            -0.0027234328        7.2850022039        4.5149185808
[...]
S             7.8845488321        6.3730336609       -1.5665250237
S             6.3066544997        7.2863602114        4.5178196685
S             6.3076599001        5.4626053320       -4.5222282367    0   0   0
S             7.8845481335        6.3729396959        1.5658905118
S             6.3027783218        7.2847047346        7.6537662721
Mo           -0.0002671940        0.0001258620        6.0849785909
Mo            6.3076557559        9.1043384407       -6.0872367793    0   0   0
Mo            4.7307710447       10.0147089533       -0.0011093433
S             4.7307404564        8.1939054785       -7.6506323570    0   0   0
S             6.3077216518        9.1043848901       -1.5664420326
S             4.7327497164       10.0124413428        4.5178218733
S             4.7307413301        8.1939045750       -4.5222282367    0   0   0
S             6.3075001459        9.1042600451        1.5661753043
S             4.7293771072       10.0099104708        7.6537657686
H             1.5770850471        6.3729899706        8.5496691624
End final coordinates

     Writing all to output data dir ./outdir/pwscf.save/

     General routines

     Parallel routines

   This run was terminated on:   3:50:14  14Aug2023

   JOB DONE.
Application 11036093 resources: utime ~1531591s, stime ~15395s, Rss ~2344876, inblocks ~0, outblocks ~33199008