     Program PWSCF v.7.2 starts on  2Sep2023 at  7:34: 2

     Waiting for input...
     Reading input from standard input
Warning: card &CELL ignored
Warning: card / ignored

     Current dimensions of program PWSCF are:
     Max number of different atomic species (ntypx) = 10
     Max number of k-points (npk) =  40000
     Max angular momentum in pseudopotentials (lmaxx) =  4
     file Mo.pbe-spn-kjpaw_psl.1.0.0.UPF: wavefunction(s)  4S 4D renormalized
     file S.pbe-n-kjpaw_psl.1.0.0.UPF: wavefunction(s)  3S 3P renormalized
     file Pd.pbe-spn-kjpaw_psl.1.0.0.UPF: wavefunction(s)  4S 5S 4D renormalized
     file H.pbe-kjpaw_psl.1.0.0.UPF: wavefunction(s)  1S renormalized

     R & G space division:  proc/nbgrp/npool/nimage =      36
     Subspace diagonalization in iterative solution of the eigenvalue problem:
     one sub-group per band group will be used

     Using Slab Decomposition

     bravais-lattice index     =            0
     lattice parameter (alat)  =      23.8199  a.u.
     unit-cell volume          =   33861.0370 (a.u.)^3
     number of atoms/cell      =          194
     number of atomic types    =            4
     number of electrons       =      1683.00
     number of Kohn-Sham states=         1010
     kinetic-energy cutoff     =      77.0000  Ry
     charge density cutoff     =     539.0000  Ry
     scf convergence threshold =      1.0E-06
     mixing beta               =       0.2000
     number of iterations used =            8  plain     mixing
     energy convergence thresh.=      1.0E-04
     force convergence thresh. =      1.0E-03
     Exchange-correlation= SLA  PW   PBX  PBC
                           (   1   4   3   4   0   0   0)
     nstep                     =         1000

     Effective Screening Medium Method
     Boundary Conditions: Vacuum-Slab-Vacuum
     total charge in unit cell        =   0.0000
     grid points for fit at edges     =        4

     celldm(1)=  23.819920  celldm(2)=   0.000000  celldm(3)=   0.000000
     celldm(4)=   0.000000  celldm(5)=   0.000000  celldm(6)=   0.000000

     crystal axes: (cart. coord. in units of alat)
               a(1) = (   1.000000   0.000000   0.000000 )
               a(2) = (  -0.499999   0.866026   0.000000 )
               a(3) = (   0.000000   0.000000   2.893000 )

     reciprocal axes: (cart. coord. in units 2 pi/alat)
               b(1) = (  1.000000  0.577349  0.000000 )
               b(2) = (  0.000000  1.154700  0.000000 )
               b(3) = (  0.000000  0.000000  0.345662 )

     PseudoPot. # 1 for Mo read from file:
     ./pseudo/Mo.pbe-spn-kjpaw_psl.1.0.0.UPF
     MD5 check sum: 317bf72632116215fd98f72de1686f13
     Pseudo is Projector augmented-wave + core cor, Zval = 14.0
     Generated using 'atomic' code by A. Dal Corso  v.7.2
     Shape of augmentation charge: PSQ
     Using radial grid of 1229 points,  6 beta functions with:
                l(1) =   0
                l(2) =   0
                l(3) =   1
                l(4) =   1
                l(5) =   2
                l(6) =   2
     Q(r) pseudized with 0 coefficients

     PseudoPot. # 2 for S  read from file:
     ./pseudo/S.pbe-n-kjpaw_psl.1.0.0.UPF
     MD5 check sum: 8b7b5302570d38d5e87fed6a1065abda
     Pseudo is Projector augmented-wave + core cor, Zval =  6.0
     Generated using 'atomic' code by A. Dal Corso  v.7.2
     Shape of augmentation charge: PSQ
     Using radial grid of 1151 points,  6 beta functions with:
                l(1) =   0
                l(2) =   0
                l(3) =   1
                l(4) =   1
                l(5) =   2
                l(6) =   2
     Q(r) pseudized with 0 coefficients

     PseudoPot. # 3 for Pd read from file:
     ./pseudo/Pd.pbe-spn-kjpaw_psl.1.0.0.UPF
     MD5 check sum: a60571a671f2502b8a6a4569d20a6edb
     Pseudo is Projector augmented-wave + core cor, Zval = 18.0
     Generated using 'atomic' code by A. Dal Corso  v.7.2
     Shape of augmentation charge: PSQ
     Using radial grid of 1235 points,  6 beta functions with:
                l(1) =   0
                l(2) =   0
                l(3) =   1
                l(4) =   1
                l(5) =   2
                l(6) =   2
     Q(r) pseudized with 0 coefficients

     PseudoPot. # 4 for H  read from file:
     ./pseudo/H.pbe-kjpaw_psl.1.0.0.UPF
     MD5 check sum: b3cb3c48ee3b58cc53e4d592112d0ca6
     Pseudo is Projector augmented-wave, Zval =  1.0
     Generated using 'atomic' code by A. Dal Corso  v.7.2
     Shape of augmentation charge: PSQ
     Using radial grid of  929 points,  2 beta functions with:
                l(1) =   0
                l(2) =   0
     Q(r) pseudized with 0 coefficients

     atomic species   valence    mass     pseudopotential
        Mo            14.00    95.95000     Mo( 1.00)
        S              6.00    32.06000     S ( 1.00)
        Pd            18.00   106.42000     Pd( 1.00)
        H              1.00     1.00800     H ( 1.00)

     No symmetry found

   Cartesian axes

     site n.     atom                  positions (alat units)
         1           Mo  tau(   1) = (   0.0000010   0.1443372  -0.7272732  )
         2           Mo  tau(   2) = (   0.1249995   0.0721706  -0.2424038  )
         3           S   tau(   3) = (   0.0000015   0.1443386  -0.3667807  )
         4           S   tau(   4) = (   0.1250010   0.0721682  -0.6030489  )
         5           S   tau(   5) = (   0.1250010   0.0721683  -0.8514963  )
         6           S   tau(   6) = (   0.0000015   0.1443389  -0.1180260  )
         7           Mo  tau(   7) = (   0.0000007   0.1443589   0.2424205  )
         8           Mo  tau(   8) = (   0.1250041   0.0720322   0.7266168  )
         9           S   tau(   9) = (   0.0000742   0.1444871   0.6020949  )
        10           S   tau(  10) = (   0.1250024   0.0721701   0.3667478  )
        11           S   tau(  11) = (   0.1250035   0.0721876   0.1180348  )
        12           S   tau(  12) = (  -0.0004118   0.1430864   0.8514340  )
        13           Mo  tau(  13) = (  -0.1249989   0.3608437  -0.7272732  )
        14           Mo  tau(  14) = (   0.0000030   0.2886752  -0.2424042  )
        15           S   tau(  15) = (  -0.1249977   0.3608450  -0.3667802  )
        16           S   tau(  16) = (   0.0000012   0.2886747  -0.6030489  )
        17           S   tau(  17) = (   0.0000012   0.2886748  -0.8514963  )
        18           S   tau(  18) = (  -0.1249977   0.3608454  -0.1180274  )
        19           Mo  tau(  19) = (  -0.1249729   0.3608584   0.2424608  )
        20           Mo  tau(  20) = (  -0.0007193   0.2876626   0.7275440  )
        21           S   tau(  21) = (  -0.1251115   0.3607789   0.6027257  )
        22           S   tau(  22) = (   0.0000621   0.2887099   0.3668377  )
        23           S   tau(  23) = (  -0.0000096   0.2886902   0.1180527  )
        24           S   tau(  24) = (  -0.1254673   0.3605734   0.8517408  )
        25           Mo  tau(  25) = (  -0.2499987   0.5773502  -0.7272732  )
        26           Mo  tau(  26) = (  -0.1249977   0.5051839  -0.2424055  )
        27           S   tau(  27) = (  -0.2499981   0.5773518  -0.3667809  )
        28           S   tau(  28) = (  -0.1249986   0.5051812  -0.6030489  )
        29           S   tau(  29) = (  -0.1249986   0.5051813  -0.8514963  )
        30           S   tau(  30) = (  -0.2499979   0.5773512  -0.1180266  )
        31           Mo  tau(  31) = (  -0.2499795   0.5773389   0.2424205  )
        32           Mo  tau(  32) = (  -0.1262356   0.5050639   0.7275441  )
        33           S   tau(  33) = (  -0.2498323   0.5773390   0.6020948  )
        34           S   tau(  34) = (  -0.1249376   0.5052159   0.3668377  )
        35           S   tau(  35) = (  -0.1249905   0.5051638   0.1180531  )
        36           S   tau(  36) = (  -0.2512883   0.5776183   0.8514340  )
        37           Mo  tau(  37) = (  -0.3749985   0.7938567  -0.7272732  )
        38           Mo  tau(  38) = (  -0.2500001   0.7216874  -0.2424031  )
        39           S   tau(  39) = (  -0.3749980   0.7938584  -0.3667800  )
        40           S   tau(  40) = (  -0.2499984   0.7216877  -0.6030489  )
        41           S   tau(  41) = (  -0.2499984   0.7216878  -0.8514963  )
        42           S   tau(  42) = (  -0.3749982   0.7938585  -0.1180264  )
        43           Mo  tau(  43) = (  -0.3749962   0.7938568   0.2423838  )
        44           Mo  tau(  44) = (  -0.2501148   0.7217588   0.7266170  )
        45           S   tau(  45) = (  -0.3749945   0.7938590   0.6021274  )
        46           S   tau(  46) = (  -0.2499958   0.7216877   0.3667488  )
        47           S   tau(  47) = (  -0.2499810   0.7216794   0.1180323  )
        48           S   tau(  48) = (  -0.3749953   0.7938585   0.8511588  )
        49           Mo  tau(  49) = (   0.2500010   0.1443372  -0.7272732  )
        50           Mo  tau(  50) = (   0.3750034   0.0721723  -0.2424032  )
        51           S   tau(  51) = (   0.2500017   0.1443391  -0.3667788  )
        52           S   tau(  52) = (   0.3750010   0.0721682  -0.6030489  )
        53           S   tau(  53) = (   0.3750010   0.0721683  -0.8514963  )
        54           S   tau(  54) = (   0.2500016   0.1443391  -0.1180271  )
        55           Mo  tau(  55) = (   0.2500054   0.1443594   0.2424211  )
        56           Mo  tau(  56) = (   0.3749279   0.0721263   0.7263991  )
        57           S   tau(  57) = (   0.2499344   0.1444864   0.6020948  )
        58           S   tau(  58) = (   0.3750316   0.0721860   0.3667597  )
        59           S   tau(  59) = (   0.3749924   0.0721644   0.1180346  )
        60           S   tau(  60) = (   0.2504199   0.1430865   0.8514340  )
[...]
       180           S   tau( 180) = (   0.5012979   0.5776190   0.8514332  )
       181           Mo  tau( 181) = (   0.3750016   0.7938567  -0.7272732  )
       182           Mo  tau( 182) = (   0.5000025   0.7216901  -0.2424039  )
       183           S   tau( 183) = (   0.3750019   0.7938578  -0.3667793  )
       184           S   tau( 184) = (   0.5000016   0.7216877  -0.6030489  )
       185           S   tau( 185) = (   0.5000016   0.7216878  -0.8514963  )
       186           S   tau( 186) = (   0.3750020   0.7938579  -0.1180272  )
       187           Mo  tau( 187) = (   0.3749848   0.7938487   0.2424206  )
       188           Mo  tau( 188) = (   0.5001249   0.7217591   0.7266160  )
       189           S   tau( 189) = (   0.3749125   0.7937251   0.6020942  )
       190           S   tau( 190) = (   0.5000021   0.7216868   0.3667472  )
       191           S   tau( 191) = (   0.4999874   0.7216780   0.1180346  )
       192           S   tau( 192) = (   0.3758826   0.7948451   0.8514332  )
       193           Pd  tau( 193) = (   0.1250063   0.5051842   0.9601361  )
       194           H   tau( 194) = (   0.2527577   0.4314440   0.9972266  )

     DFT-D3 Dispersion Correction (3-body terms):
       Reference C6 values for interpolation:

         atom   Coordination number   C6
         H          0.912             6.05
         H          0.000            15.18
         S          0.000           268.01
[...]
     atom   14 type  1   force =     0.00000000    0.00000000    0.00000000
     atom   15 type  2   force =     0.00000000    0.00000000    0.00000000
     atom   16 type  2   force =     0.00000000    0.00000000    0.00000000
     atom   17 type  2   force =     0.00000000    0.00000000    0.00000000
     atom   18 type  2   force =     0.00000000    0.00000000    0.00000000
     atom   19 type  1   force =     0.00000403    0.00000589    0.00002985
     atom   20 type  1   force =    -0.00001508    0.00002542    0.00000203
     atom   21 type  2   force =     0.00000915    0.00001026    0.00000613
     atom   22 type  2   force =     0.00000309    0.00000543    0.00000982
     atom   23 type  2   force =     0.00000054    0.00000346    0.00000794
     atom   24 type  2   force =    -0.00000499   -0.00000060   -0.00000522
     atom   25 type  1   force =     0.00000000    0.00000000    0.00000000
     atom   26 type  1   force =     0.00000000    0.00000000    0.00000000
     atom   27 type  2   force =     0.00000000    0.00000000    0.00000000
     atom   28 type  2   force =     0.00000000    0.00000000    0.00000000
     atom   29 type  2   force =     0.00000000    0.00000000    0.00000000
     atom   30 type  2   force =     0.00000000    0.00000000    0.00000000
     atom   31 type  1   force =     0.00000416    0.00000216    0.00003849
     atom   32 type  1   force =     0.00001487    0.00000781    0.00003906
     atom   33 type  2   force =     0.00000319   -0.00000297    0.00000759
     atom   34 type  2   force =     0.00000570    0.00000018    0.00000637
     atom   35 type  2   force =     0.00000270    0.00000046    0.00000704
     atom   36 type  2   force =     0.00000491   -0.00000094   -0.00000052
     atom   37 type  1   force =     0.00000000    0.00000000    0.00000000
     atom   38 type  1   force =     0.00000000    0.00000000    0.00000000
     atom   39 type  2   force =     0.00000000    0.00000000    0.00000000
     atom   40 type  2   force =     0.00000000    0.00000000    0.00000000
     atom   41 type  2   force =     0.00000000    0.00000000    0.00000000
     atom   42 type  2   force =     0.00000000    0.00000000    0.00000000
     atom   43 type  1   force =     0.00000117   -0.00000096    0.00002468
     atom   44 type  1   force =     0.00000274   -0.00000206   -0.00000044
     atom   45 type  2   force =    -0.00000078    0.00000035    0.00000677
     atom   46 type  2   force =     0.00000081   -0.00000045    0.00000098
     atom   47 type  2   force =    -0.00000252    0.00000142    0.00000631
     atom   48 type  2   force =    -0.00000266    0.00000142   -0.00000103
     atom   49 type  1   force =     0.00000000    0.00000000    0.00000000
     atom   50 type  1   force =     0.00000000    0.00000000    0.00000000
     atom   51 type  2   force =     0.00000000    0.00000000    0.00000000
     atom   52 type  2   force =     0.00000000    0.00000000    0.00000000
     atom   53 type  2   force =     0.00000000    0.00000000    0.00000000
     atom   54 type  2   force =     0.00000000    0.00000000    0.00000000
     atom   55 type  1   force =    -0.00000347    0.00001328    0.00001742
     atom   56 type  1   force =     0.00000299   -0.00001427   -0.00000468
     atom   57 type  2   force =    -0.00000131    0.00000621    0.00000268
     atom   58 type  2   force =    -0.00000078   -0.00000149    0.00000174
     atom   59 type  2   force =    -0.00000338    0.00000309    0.00000710
     atom   60 type  2   force =     0.00000416   -0.00000177    0.00000602
[...]
     atom  180 type  2   force =     0.00000347   -0.00000260    0.00000578
     atom  181 type  1   force =     0.00000000    0.00000000    0.00000000
     atom  182 type  1   force =     0.00000000    0.00000000    0.00000000
     atom  183 type  2   force =     0.00000000    0.00000000    0.00000000
     atom  184 type  2   force =     0.00000000    0.00000000    0.00000000
     atom  185 type  2   force =     0.00000000    0.00000000    0.00000000
     atom  186 type  2   force =     0.00000000    0.00000000    0.00000000
     atom  187 type  1   force =    -0.00000516   -0.00000229    0.00003932
     atom  188 type  1   force =     0.00000810   -0.00000634   -0.00000534
     atom  189 type  2   force =    -0.00000422   -0.00000731    0.00000066
     atom  190 type  2   force =    -0.00000668   -0.00000064    0.00000465
     atom  191 type  2   force =    -0.00000193   -0.00000155    0.00000643
     atom  192 type  2   force =    -0.00000356    0.00000460    0.00000478
     atom  193 type  3   force =     0.00014799   -0.00008484   -0.00003517
     atom  194 type  4   force =    -0.00000545    0.00000316   -0.00000159

     DFT-D3 dispersion contribution to forces:
     atom    1 type  1   force =     0.00000001    0.00000004    0.00255978
     atom    2 type  1   force =    -0.00000003    0.00000009    0.00002492
     atom    3 type  2   force =     0.00000001   -0.00000001   -0.00003198
     atom    4 type  2   force =    -0.00000001   -0.00000001    0.00017170
     atom    5 type  2   force =     0.00000000    0.00000000    0.00441517
     atom    6 type  2   force =     0.00000020    0.00000023    0.00010374
     atom    7 type  1   force =    -0.00000544   -0.00000818   -0.00000622
     atom    8 type  1   force =     0.00000155    0.00009460   -0.00246290
     atom    9 type  2   force =     0.00000118    0.00000187   -0.00013313
     atom   10 type  2   force =    -0.00000333   -0.00001648    0.00003588
     atom   11 type  2   force =     0.00000001   -0.00000015   -0.00010023
     atom   12 type  2   force =     0.00010055    0.00027955   -0.00430125
     atom   13 type  1   force =     0.00000003    0.00000001    0.00255983
     atom   14 type  1   force =     0.00000015    0.00000029    0.00002525
     atom   15 type  2   force =     0.00000003    0.00000001   -0.00003192
     atom   16 type  2   force =     0.00000001    0.00000001    0.00017173
     atom   17 type  2   force =    -0.00000000    0.00000001    0.00441507
     atom   18 type  2   force =     0.00000048    0.00000026    0.00010388
     atom   19 type  1   force =    -0.00001218   -0.00000849   -0.00001755
     atom   20 type  1   force =     0.00017922    0.00029798   -0.00214436
     atom   21 type  2   force =     0.00002109   -0.00000091   -0.00009387
     atom   22 type  2   force =    -0.00000606   -0.00002020    0.00003925
     atom   23 type  2   force =     0.00000005   -0.00000012   -0.00010301
     atom   24 type  2   force =     0.00049679    0.00028054   -0.00417038
     atom   25 type  1   force =     0.00000003   -0.00000002    0.00255979
     atom   26 type  1   force =     0.00000029    0.00000008    0.00002535
     atom   27 type  2   force =     0.00000003    0.00000001   -0.00003196
     atom   28 type  2   force =     0.00000001    0.00000000    0.00017172
     atom   29 type  2   force =     0.00000000   -0.00000002    0.00441509
     atom   30 type  2   force =     0.00000028    0.00000007    0.00010385
     atom   31 type  1   force =    -0.00000938   -0.00000103   -0.00001176
     atom   32 type  1   force =     0.00035380   -0.00001497   -0.00217287
     atom   33 type  2   force =    -0.00001188    0.00000783   -0.00013831
     atom   34 type  2   force =    -0.00001576    0.00000121    0.00003790
     atom   35 type  2   force =     0.00000048    0.00000061   -0.00010381
     atom   36 type  2   force =     0.00026476   -0.00005134   -0.00431910
     atom   37 type  1   force =    -0.00000001   -0.00000000    0.00255983
     atom   38 type  1   force =     0.00000015   -0.00000006    0.00002507
     atom   39 type  2   force =    -0.00000000    0.00000002   -0.00003196
     atom   40 type  2   force =    -0.00000001    0.00000000    0.00017169
     atom   41 type  2   force =    -0.00000003    0.00000001    0.00441518
     atom   42 type  2   force =    -0.00000002    0.00000004    0.00010372
     atom   43 type  1   force =    -0.00000271    0.00000155    0.00000028
     atom   44 type  1   force =     0.00006934   -0.00004004   -0.00247633
     atom   45 type  2   force =    -0.00000522    0.00000301   -0.00016181
     atom   46 type  2   force =    -0.00001395    0.00000805    0.00003516
     atom   47 type  2   force =    -0.00000000    0.00000000   -0.00010101
     atom   48 type  2   force =     0.00000070   -0.00000041   -0.00440134
     atom   49 type  1   force =     0.00000002    0.00000003    0.00255981
     atom   50 type  1   force =     0.00000003   -0.00000008    0.00002496
     atom   51 type  2   force =    -0.00000003   -0.00000002   -0.00003198
     atom   52 type  2   force =     0.00000001    0.00000001    0.00017173
     atom   53 type  2   force =    -0.00000000    0.00000001    0.00441516
     atom   54 type  2   force =    -0.00000011    0.00000008    0.00010378
     atom   55 type  1   force =     0.00000307   -0.00000671   -0.00001022
     atom   56 type  1   force =    -0.00000755    0.00000276   -0.00248597
     atom   57 type  2   force =    -0.00000946   -0.00000620   -0.00013515
     atom   58 type  2   force =     0.00000241   -0.00000116    0.00004322
     atom   59 type  2   force =    -0.00000091   -0.00000033   -0.00010011
     atom   60 type  2   force =    -0.00010077    0.00032152   -0.00428543
[...]
     atom  180 type  2   force =    -0.00032883   -0.00007349   -0.00428544
     atom  181 type  1   force =    -0.00000003   -0.00000003    0.00255979
     atom  182 type  1   force =    -0.00000013   -0.00000001    0.00002492
     atom  183 type  2   force =    -0.00000001   -0.00000001   -0.00003197
     atom  184 type  2   force =     0.00000001    0.00000000    0.00017171
     atom  185 type  2   force =     0.00000000   -0.00000001    0.00441517
     atom  186 type  2   force =    -0.00000014   -0.00000030    0.00010372
     atom  187 type  1   force =     0.00000436    0.00000880   -0.00000623
     atom  188 type  1   force =    -0.00008115   -0.00004865   -0.00246290
     atom  189 type  2   force =    -0.00000103   -0.00000196   -0.00013313
     atom  190 type  2   force =     0.00001261    0.00001112    0.00003588
     atom  191 type  2   force =     0.00000013    0.00000008   -0.00010024
     atom  192 type  2   force =    -0.00019182   -0.00022685   -0.00430126
     atom  193 type  3   force =    -0.00005895    0.00003405   -0.00639263
     atom  194 type  4   force =     0.00006143   -0.00003547   -0.00091792

     Total force =     0.003192     Total SCF correction =     0.000264
     Energy error            =      3.6E-05 Ry
     Gradient error          =      9.2E-04 Ry/Bohr

     bfgs converged in  36 scf cycles and  35 bfgs steps
     (criteria: energy <  1.0E-04 Ry, force <  1.0E-03 Ry/Bohr)

     End of BFGS Geometry Optimization

     Final energy             =  -32306.7869163489 Ry

     File ./outdir/pwscf.bfgs deleted, as requested
Begin final coordinates

ATOMIC_POSITIONS (angstrom)
Mo            0.0000119917        1.8193638619       -9.1672481230    0   0   0
Mo            1.5756136568        0.9097075315       -3.0554901653    0   0   0
S             0.0000188998        1.8193822938       -4.6232556019    0   0   0
S             1.5756321638        0.9096773839       -7.6014065489    0   0   0
S             1.5756326175        0.9096785128      -10.7330757790    0   0   0
S             0.0000189190        1.8193860094       -1.4877129945    0   0   0
Mo            0.0005720138        1.8193729481        3.0507822514
Mo            1.5886200222        0.9012843815        9.1464639645
S             0.0119054075        1.8131344579        7.5778905617
S             1.5762818713        0.9098114480        4.6181538851
S             1.5759757637        0.9095625427        1.4831245123
S             0.0094484425        1.7961312905       10.7210858702
Mo           -1.5756053507        4.5484193819       -9.1672481230    0   0   0
Mo            0.0000378379        3.6387394919       -3.0554952701    0   0   0
S            -1.5755913433        4.5484363582       -4.6232494962    0   0   0
S             0.0000148214        3.6387329039       -7.6014065489    0   0   0
S             0.0000152751        3.6387340328      -10.7330757790    0   0   0
S            -1.5755906502        4.5484413613       -1.4877305502    0   0   0
Mo           -1.5749027573        4.5484586568        3.0509023893
Mo           -0.0012645326        3.6192255254        9.1540331620
S            -1.5639746608        4.5463938423        7.5864640392
S             0.0010039677        3.6390133871        4.6189623685
S             0.0004054489        3.6387255023        1.4832232345
S            -1.5736479442        4.5292720226       10.7282165166
Mo           -3.1512226931        7.2774749019       -9.1672481230    0   0   0
Mo           -1.5755910988        6.3678216792       -3.0555115988    0   0   0
S            -3.1512162438        7.2774954350       -4.6232578178    0   0   0
S            -1.5756025210        6.3677884239       -7.6014065489    0   0   0
S            -1.5756020673        6.3677895528      -10.7330757790    0   0   0
S            -3.1512127704        7.2774877076       -1.4877200710    0   0   0
Mo           -3.1506578188        7.2772505046        3.0506085951
Mo           -1.5690660331        6.3538829115        9.1698569994
S            -3.1293316802        7.2661993923        7.5856160216
S            -1.5741206277        6.3681083186        4.6181153278
S            -1.5755154257        6.3675204559        1.4825654415
S            -3.1533826925        7.2723605747       10.7236295051
Mo           -4.7268400355       10.0065304219       -9.1672481230    0   0   0
Mo           -3.1512405618        9.0968403586       -3.0554816746    0   0   0
S            -4.7268341792       10.0065523623       -4.6232463762    0   0   0
S            -3.1512198634        9.0968439439       -7.6014065489    0   0   0
S            -3.1512194097        9.0968450728      -10.7330757790    0   0   0
S            -4.7268370797       10.0065537885       -1.4877176751    0   0   0
Mo           -4.7265612683       10.0063984728        3.0508614012
Mo           -3.1373685975        9.0888991994        9.1496511684
S            -4.7117101722        9.9978435664        7.5783006853
S            -3.1506166602        9.0965288057        4.6180706474
S            -3.1511459073        9.0968328704        1.4831558351
S            -4.7142753187        9.9993282181       10.7147561000
Mo            3.1512517547        1.8193638619       -9.1672481230    0   0   0
Mo            4.7269020221        0.9097289540       -3.0554823951    0   0   0
S             3.1512612351        1.8193882564       -4.6232320683    0   0   0
S             4.7268719268        0.9096773839       -7.6014065489    0   0   0
S             4.7268723805        0.9096785128      -10.7330757790    0   0   0
S             3.1512592485        1.8193890201       -1.4877261251    0   0   0
Mo            3.1516786359        1.8193793730        3.0506174338
Mo            4.7399970011        0.9023113378        9.1467227744
S             3.1646661862        1.8177412264        7.5812150583
S             4.7271888815        0.9092818125        4.6182792535
S             4.7274009277        0.9096571588        1.4831989004
S             3.1672232662        1.7914454706       10.7242678234
[...]
S             6.3347034559        7.2776776981       10.7242731338
Mo            4.7268792535       10.0065304219       -9.1672481230    0   0   0
Mo            6.3025111524        9.0968738021       -3.0554915260    0   0   0
S             4.7268840634       10.0065452125       -4.6232380477    0   0   0
S             6.3024994256        9.0968439439       -7.6014065489    0   0   0
S             6.3024998793        9.0968450728      -10.7330757790    0   0   0
S             4.7268847312       10.0065459141       -1.4877283294    0   0   0
Mo            4.7271818520       10.0060866667        3.0507838871
Mo            6.3163059615        9.0898674725        9.1464683562
S             4.7382659283        9.9994165245        7.5778950973
S             6.3027365578        9.0962633074        4.6181606588
S             6.3027963738        9.0966478289        1.4831228120
S             4.7517623742       10.0100508684       10.7210899107
Pd            1.6564160929        6.3211919964       12.1887054062
H             2.5026902624        5.8325415938       13.4437652031
End final coordinates

     Writing all to output data dir ./outdir/pwscf.save/

     General routines

     Parallel routines

   This run was terminated on:   7:57:20   3Sep2023

   JOB DONE.
Application 11123247 resources: utime ~3127033s, stime ~33224s, Rss ~3510172, inblocks ~0, outblocks ~53726424