     Program PWSCF v.7.3 starts on 30Mar2024 at 20:55:28

     Waiting for input...
     Reading input from standard input
Warning: card &CELL ignored
Warning: card / ignored

     Current dimensions of program PWSCF are:
     Max number of different atomic species (ntypx) = 10
     Max number of k-points (npk) =  40000
     Max angular momentum in pseudopotentials (lmaxx) =  4
     file Mo.pbe-spn-kjpaw_psl.1.0.0.UPF: wavefunction(s)  4S 4D renormalized
     file S.pbe-n-kjpaw_psl.1.0.0.UPF: wavefunction(s)  3S 3P renormalized
     file Pt.pbe-spfn-kjpaw_psl.1.0.0.UPF: wavefunction(s)  5P 4F renormalized
     file Pd.pbe-spn-kjpaw_psl.1.0.0.UPF: wavefunction(s)  4S 5S 4D renormalized

     R & G space division:  proc/nbgrp/npool/nimage =      36
     Subspace diagonalization in iterative solution of the eigenvalue problem:
     one sub-group per band group will be used

     Using Slab Decomposition

     bravais-lattice index     =            0
     lattice parameter (alat)  =      23.8395  a.u.
     unit-cell volume          =   28182.8498 (a.u.)^3
     number of atoms/cell      =          147
     number of atomic types    =            4
     number of electrons       =      1330.00
     number of Kohn-Sham states=          798
     kinetic-energy cutoff     =      77.0000  Ry
     charge density cutoff     =     539.0000  Ry
     scf convergence threshold =      1.0E-06
     mixing beta               =       0.2000
     number of iterations used =            8  plain     mixing
     energy convergence thresh.=      1.0E-04
     force convergence thresh. =      1.0E-03
     Exchange-correlation= SLA  PW   PBX  PBC
                           (   1   4   3   4   0   0   0)
     nstep                     =         1000

     Effective Screening Medium Method
     Boundary Conditions: Vacuum-Slab-Vacuum
     total charge in unit cell        =   0.0000
     grid points for fit at edges     =        4

     celldm(1)=  23.839504  celldm(2)=   0.000000  celldm(3)=   0.000000
     celldm(4)=   0.000000  celldm(5)=   0.000000  celldm(6)=   0.000000

     crystal axes: (cart. coord. in units of alat)
               a(1) = (   1.000000   0.000000   0.000000 )
               a(2) = (  -0.500001   0.866026   0.000000 )
               a(3) = (   0.000000   0.000000   2.401941 )

     reciprocal axes: (cart. coord. in units 2 pi/alat)
               b(1) = (  1.000000  0.577351  0.000000 )
               b(2) = (  0.000000  1.154700  0.000000 )
               b(3) = (  0.000000  0.000000  0.416330 )

     PseudoPot. # 1 for Mo read from file:
     ./pseudo/Mo.pbe-spn-kjpaw_psl.1.0.0.UPF
     MD5 check sum: 317bf72632116215fd98f72de1686f13
     Pseudo is Projector augmented-wave + core cor, Zval = 14.0
     Generated using 'atomic' code by A. Dal Corso  v.7.2
     Shape of augmentation charge: PSQ
     Using radial grid of 1229 points,  6 beta functions with:
                l(1) =   0
                l(2) =   0
                l(3) =   1
                l(4) =   1
                l(5) =   2
                l(6) =   2
     Q(r) pseudized with 0 coefficients

     PseudoPot. # 2 for S  read from file:
     ./pseudo/S.pbe-n-kjpaw_psl.1.0.0.UPF
     MD5 check sum: 8b7b5302570d38d5e87fed6a1065abda
     Pseudo is Projector augmented-wave + core cor, Zval =  6.0
     Generated using 'atomic' code by A. Dal Corso  v.7.2
     Shape of augmentation charge: PSQ
     Using radial grid of 1151 points,  6 beta functions with:
                l(1) =   0
                l(2) =   0
                l(3) =   1
                l(4) =   1
                l(5) =   2
                l(6) =   2
     Q(r) pseudized with 0 coefficients

     PseudoPot. # 3 for Pt read from file:
     ./pseudo/Pt.pbe-spfn-kjpaw_psl.1.0.0.UPF
     MD5 check sum: 620096ebf4e6ebacc94de60fd67efcb5
     Pseudo is Projector augmented-wave + core cor, Zval = 32.0
     Generated using 'atomic' code by A. Dal Corso  v.7.2
     Shape of augmentation charge: PSQ
     Using radial grid of 1277 points,  8 beta functions with:
                l(1) =   0
                l(2) =   0
                l(3) =   1
                l(4) =   1
                l(5) =   2
                l(6) =   2
                l(7) =   3
                l(8) =   3
     Q(r) pseudized with 0 coefficients

     PseudoPot. # 4 for Pd read from file:
     ./pseudo/Pd.pbe-spn-kjpaw_psl.1.0.0.UPF
     MD5 check sum: a60571a671f2502b8a6a4569d20a6edb
     Pseudo is Projector augmented-wave + core cor, Zval = 18.0
     Generated using 'atomic' code by A. Dal Corso  v.7.2
     Shape of augmentation charge: PSQ
     Using radial grid of 1235 points,  6 beta functions with:
                l(1) =   0
                l(2) =   0
                l(3) =   1
                l(4) =   1
                l(5) =   2
                l(6) =   2
     Q(r) pseudized with 0 coefficients

     atomic species   valence    mass     pseudopotential
     Mo               14.00    95.95000     Mo( 1.00)
     S                 6.00    32.06000     S ( 1.00)
     Pt               32.00   195.08400     Pt( 1.00)
     Pd               18.00   106.42000     Pd( 1.00)

     No symmetry found

   Cartesian axes

     site n.     atom                  positions (alat units)
         1        Mo     tau(   1) = (   0.1246074   0.2157200   0.4826345  )
         2        Mo     tau(   2) = (   0.1250004   0.0721694  -0.4825273  )
         3        Mo     tau(   3) = (   0.0000068   0.1443549  -0.0000406  )
         4        S      tau(   4) = (   0.0000004   0.0000006  -0.6064556  )
         5        S      tau(   5) = (   0.1249873   0.0722031  -0.1241756  )
         6        S      tau(   6) = (   0.0000973   0.1450650   0.3573519  )
         7        S      tau(   7) = (   0.0000004   0.0000005  -0.3584711  )
         8        S      tau(   8) = (   0.1249847   0.0720950   0.1240801  )
         9        S      tau(   9) = (  -0.0005301   0.1434694   0.6062599  )
        10        Mo     tau(  10) = (  -0.0009156   0.4330317   0.4832560  )
        11        Mo     tau(  11) = (   0.0000001   0.2886759  -0.4825273  )
        12        Mo     tau(  12) = (  -0.1249829   0.3608507   0.0000027  )
        13        S      tau(  13) = (  -0.1249999   0.2165071  -0.6064556  )
        14        S      tau(  14) = (   0.0000128   0.2886930  -0.1241006  )
        15        S      tau(  15) = (  -0.1248837   0.3612581   0.3580377  )
        16        S      tau(  16) = (  -0.1249998   0.2165070  -0.3584711  )
        17        S      tau(  17) = (   0.0000764   0.2887257   0.1242499  )
        18        S      tau(  18) = (  -0.1253220   0.3603286   0.6073134  )
        19        Mo     tau(  19) = (  -0.1249684   0.6493789   0.4818062  )
        20        Mo     tau(  20) = (  -0.1250002   0.5051824  -0.4825273  )
        21        Mo     tau(  21) = (  -0.2500040   0.5773207  -0.0001409  )
        22        S      tau(  22) = (  -0.2500002   0.4330136  -0.6064556  )
        23        S      tau(  23) = (  -0.1249903   0.5051158  -0.1241917  )
        24        S      tau(  24) = (  -0.2499555   0.5769406   0.3578597  )
        25        S      tau(  25) = (  -0.2500001   0.4330135  -0.3584711  )
        26        S      tau(  26) = (  -0.1249930   0.5052458   0.1241101  )
        27        S      tau(  27) = (  -0.2497899   0.5778453   0.6063597  )
        28        Mo     tau(  28) = (   0.2497834  -0.0005160   0.4806710  )
        29        Mo     tau(  29) = (  -0.2500004   0.7216889  -0.4825273  )
        30        Mo     tau(  30) = (  -0.3750188   0.7938286  -0.0001549  )
        31        S      tau(  31) = (  -0.3750004   0.6495201  -0.6064556  )
        32        S      tau(  32) = (  -0.2500074   0.7216649  -0.1242513  )
        33        S      tau(  33) = (  -0.3752234   0.7935039   0.3566636  )
        34        S      tau(  34) = (  -0.3750004   0.6495200  -0.3584711  )
        35        S      tau(  35) = (  -0.2499996   0.7216607   0.1240200  )
        36        S      tau(  36) = (  -0.3746819   0.7948899   0.6057341  )
        37        Mo     tau(  37) = (   0.3750034   0.2123618   0.4807886  )
        38        Mo     tau(  38) = (   0.3750004   0.0721694  -0.4825273  )
        39        Mo     tau(  39) = (   0.2499981   0.1443415  -0.0000413  )
        40        S      tau(  40) = (   0.2500004   0.0000006  -0.6064556  )
        41        S      tau(  41) = (   0.3750280   0.0722231  -0.1241519  )
        42        S      tau(  42) = (   0.2489233   0.1437373   0.3564531  )
        43        S      tau(  43) = (   0.2500004   0.0000005  -0.3584711  )
        44        S      tau(  44) = (   0.3749877   0.0720947   0.1241383  )
        45        S      tau(  45) = (   0.2497122   0.1423104   0.6055821  )
        46        Mo     tau(  46) = (   0.2490774   0.4329018   0.4862977  )
        47        Mo     tau(  47) = (   0.2500001   0.2886759  -0.4825273  )
        48        Mo     tau(  48) = (   0.1250319   0.3608540  -0.0000126  )
        49        S      tau(  49) = (   0.1250001   0.2165071  -0.6064556  )
        50        S      tau(  50) = (   0.2500259   0.2886851  -0.1240979  )
        51        S      tau(  51) = (   0.1263042   0.3620125   0.3614359  )
        52        S      tau(  52) = (   0.1250002   0.2165070  -0.3584711  )
        53        S      tau(  53) = (   0.2500168   0.2886898   0.1242904  )
        54        S      tau(  54) = (   0.1173694   0.3566575   0.6132890  )
        55        Mo     tau(  55) = (   0.1240062   0.6506471   0.4823696  )
        56        Mo     tau(  56) = (   0.1249998   0.5051824  -0.4825273  )
        57        Mo     tau(  57) = (   0.0000191   0.5773226  -0.0001255  )
        58        S      tau(  58) = (  -0.0000002   0.4330136  -0.6064556  )
        59        S      tau(  59) = (   0.1250359   0.5051398  -0.1241676  )
        60        S      tau(  60) = (   0.0000697   0.5768181   0.3580317  )
[...]
       133        S      tau( 133) = (   0.4999999   0.4330135  -0.3584711  )
       134        S      tau( 134) = (   0.6250095   0.5052263   0.1241915  )
       135        S      tau( 135) = (   0.5006407   0.5846211   0.6091832  )
       136        Mo     tau( 136) = (   0.0000410   0.0004185   0.4809769  )
       137        Mo     tau( 137) = (   0.4999996   0.7216889  -0.4825273  )
       138        Mo     tau( 138) = (   0.3750036   0.7938273  -0.0000272  )
       139        S      tau( 139) = (   0.3749996   0.6495201  -0.6064556  )
       140        S      tau( 140) = (   0.4999499   0.7216482  -0.1241729  )
       141        S      tau( 141) = (   0.3750006   0.7941054   0.3569117  )
       142        S      tau( 142) = (   0.3749996   0.6495200  -0.3584711  )
       143        S      tau( 143) = (   0.5000314   0.7216102   0.1241515  )
       144        S      tau( 144) = (   0.3752329   0.7966920   0.6062052  )
       145        Pt     tau( 145) = (   0.2580795   0.4348292   0.7095693  )
       146        Pd     tau( 146) = (   0.4899479   0.4358638   0.7204770  )
       147        Pt     tau( 147) = (   0.3750201   0.2123608   0.7278451  )

     DFT-D3 Dispersion Correction (3-body terms):
       Reference C6 values for interpolation:

[...]
   -40.7299 -40.7286 -40.7233 -40.7233 -40.7232 -40.7227 -40.7186 -40.7172
   -40.7143 -40.7085 -40.7041 -40.7036 -40.7012 -40.6994 -40.6870 -40.6869
   -40.6817 -40.6793 -40.6771 -40.6683 -40.6568 -40.6563 -40.6477 -40.6419
   -40.6382 -40.6361 -40.6239 -40.6165 -40.6119 -40.6042 -40.5845 -40.5775
   -40.5571 -40.5539 -20.7373 -19.9870 -19.9796 -19.8840 -19.8346 -19.7630
   -19.6650 -19.5574 -19.5448 -19.4854 -19.4077 -19.3612 -19.2488 -18.9136
   -18.8875 -18.8516 -18.8472 -18.8425 -18.8398 -18.8156 -18.8025 -18.7975
   -18.7425 -18.7208 -18.7170 -18.7057 -18.6975 -18.6773 -18.6601 -18.6499
   -18.6062 -18.5938 -18.5865 -18.5554 -18.5446 -18.5261 -18.5228 -18.4974
   -18.4850 -18.4326 -18.4112 -18.3870 -18.3707 -18.3536 -18.3466 -18.3278
   -18.2999 -18.2704 -18.2659 -18.2457 -18.2350 -18.2299 -18.2298 -18.2297
   -18.2296 -18.2057 -18.1895 -18.1867 -18.1619 -18.1594 -18.1520 -18.1496
   -18.1472 -18.1411 -18.1261 -18.1100 -18.0968 -18.0926 -18.0833 -18.0641
   -18.0525 -18.0494 -18.0473 -18.0376 -18.0215 -18.0134 -17.9909 -17.9883
   -17.9732 -17.9663 -17.9663 -17.9591 -17.9262 -17.9219 -17.9071 -17.9066
   -17.9031 -17.8908 -17.8903 -17.8782 -17.8737 -17.8643 -17.8458 -17.8454
   -17.7881 -17.7823 -12.7620 -12.5252 -12.3677 -11.8093 -11.7831 -11.7207
   -11.5907 -11.5783 -11.5751 -11.5744 -11.5672 -11.5522 -11.5475 -11.5150
   -11.4888 -11.4815 -11.4768 -11.4679 -11.4537 -11.4229 -11.4193 -11.4125
   -11.3870 -11.3760 -11.3592 -11.3592 -11.3582 -11.3360 -11.3143 -11.3137
   -11.3032 -11.2607 -11.2591 -11.2533 -11.2521 -11.2077 -11.1858 -11.1431
   -11.1169 -11.0774 -11.0760 -11.0677 -11.0490 -11.0410 -11.0172 -11.0128
   -11.0077 -10.9984 -10.9607 -10.9486 -10.9452 -10.9384 -10.9338 -10.9326
   -10.9323 -10.9293 -10.9190 -10.9156 -10.9085 -10.8759 -10.8710 -10.8643
   -10.8575 -10.8433 -10.8056 -10.7168 -10.6922 -10.6559 -10.6034 -10.5932
   -10.5639 -10.4928 -10.4540 -10.4394 -10.3877 -10.3683 -10.2508 -10.2330
   -10.2224 -10.2208 -10.1963 -10.1701 -10.1522 -10.1230 -10.1208 -10.0889
   -10.0603 -10.0431 -10.0388 -10.0334 -10.0312 -10.0202 -10.0188 -10.0003
   -10.0000  -9.9862  -9.9789  -9.9701  -9.9040  -9.8956  -9.8922  -9.8605
    -9.8570  -9.8346  -9.8291  -9.8159  -9.8124  -9.8074  -9.8012  -9.7973
    -9.7682  -9.7568  -9.7505  -9.7317  -9.7195  -9.7031  -9.6900  -9.6672
    -9.6570  -9.6402  -9.6308  -9.6284  -9.5866  -9.5817  -9.5726  -9.5642
    -9.5401  -9.4970  -9.4561  -9.4366  -9.3879  -9.3531  -9.3151  -9.3103
    -9.2872  -9.2748  -9.2691  -9.2581  -9.2424  -9.2309  -9.2237  -9.2137
    -9.2102  -9.1771  -9.1633  -9.1475  -9.1420  -9.1342  -9.1232  -9.1150
    -9.0973  -9.0899  -9.0782  -9.0715  -9.0556  -9.0465  -9.0407  -9.0380
    -9.0368  -9.0315  -9.0273  -9.0173  -8.9944  -8.9785  -8.9683  -8.9615
[...]
    -3.8642  -3.8166  -3.7886  -3.7326  -3.7176  -3.7069  -3.6990  -3.6954
    -3.6933  -3.6832  -3.6814  -3.6795  -3.6601  -3.6245  -3.6045  -3.5976
    -3.5923  -3.5877  -3.5784  -3.5754  -3.5733  -3.5656  -3.5565  -3.5315
    -3.5238  -3.4929  -3.4850  -3.4668  -3.4557  -3.4486  -3.4475  -3.4364
    -3.4209  -3.4179  -3.4142  -3.4107  -3.4067  -3.3802  -3.3732  -3.3725
    -3.3718  -3.3708  -3.3495  -3.3435  -3.3407  -3.3320  -3.3258  -3.3150
    -3.3006  -3.2975  -3.2900  -3.2894  -3.2774  -3.2649  -3.2458  -3.2398
    -3.2272  -3.2059  -3.2005  -3.1689  -3.1672  -3.1444  -3.1316  -3.1285
    -3.1228  -3.1112  -3.1092  -3.1089  -3.1083  -3.0952  -3.0746  -3.0606
    -3.0600  -3.0524  -3.0474  -3.0374  -3.0308  -3.0251  -3.0120  -3.0090
    -2.9979  -2.9886  -2.9852  -2.9740  -2.9707  -2.9652  -2.9497  -2.9344
    -2.9278  -2.9075  -2.9037  -2.8974  -2.8689  -2.8354  -2.8229  -2.8077
    -2.7836  -2.7793  -2.7573  -2.7494  -2.7464  -2.7357  -2.7333  -2.6743
    -2.6681  -2.6642  -2.6198  -2.6114  -2.5947  -2.5878  -2.5750  -2.5660
    -2.4686  -2.4626  -2.4538  -2.4087  -2.3947  -2.3593

     the Fermi energy is    -4.6582 ev

!    total energy              =  -27706.48295123 Ry
     total all-electron energy =   -549111.745390 Ry
     estimated scf accuracy    <          2.9E-09 Ry
     smearing contrib. (-TS)   =      -0.00000116 Ry
     internal energy E=F+TS    =  -27706.48295007 Ry

     The total energy is F=E-TS. E is the sum of the following terms:
     one-electron contribution =  525061.43464520 Ry
     hartree contribution      = -262716.36657351 Ry
     xc contribution           =   -1610.29869347 Ry
     ewald contribution        = -271657.50610602 Ry
     DFT-D3 Dispersion         =      -4.06477351 Ry
     one-center paw contrib.   =  -16779.68144875 Ry

     convergence has been achieved in  10 iterations

     negative rho (up, down):  9.414E-04 0.000E+00

     Forces acting on atoms (cartesian axes, Ry/au):

     atom    1 type  1   force =     0.00033249    0.00020309    0.00010473
     atom    2 type  1   force =     0.00000173    0.00000230    0.00190251
     atom    3 type  1   force =     0.00002107    0.00000620   -0.00007334
     atom    4 type  2   force =     0.00000015    0.00000199   -0.00327980
     atom    5 type  2   force =     0.00002677   -0.00000121   -0.00002778
     atom    6 type  2   force =     0.00060443    0.00068013    0.00009237
     atom    7 type  2   force =     0.00000491    0.00000060    0.00150166
     atom    8 type  2   force =     0.00000406    0.00003337    0.00001162
     atom    9 type  2   force =     0.00013811    0.00016389   -0.00025594
     atom   10 type  1   force =    -0.00004680    0.00014414    0.00004935
     atom   11 type  1   force =     0.00000111    0.00000331    0.00190101
     atom   12 type  1   force =     0.00000636   -0.00001558   -0.00002117
     atom   13 type  2   force =     0.00000045    0.00000162   -0.00327989
     atom   14 type  2   force =     0.00001112    0.00002236   -0.00003777
     atom   15 type  2   force =     0.00007782    0.00052185    0.00024557
     atom   16 type  2   force =    -0.00000037    0.00000785    0.00150422
     atom   17 type  2   force =     0.00000927   -0.00002396   -0.00005185
     atom   18 type  2   force =    -0.00000484    0.00006307    0.00013499
     atom   19 type  1   force =    -0.00000519    0.00004063   -0.00024671
     atom   20 type  1   force =    -0.00000002    0.00000184    0.00189580
     atom   21 type  1   force =     0.00000659   -0.00000565    0.00002247
     atom   22 type  2   force =     0.00000061    0.00000196   -0.00328034
     atom   23 type  2   force =     0.00000457   -0.00001078    0.00000956
     atom   24 type  2   force =    -0.00049054   -0.00031205    0.00010295
     atom   25 type  2   force =    -0.00000129    0.00000228    0.00149817
     atom   26 type  2   force =     0.00000632   -0.00000041    0.00001660
     atom   27 type  2   force =    -0.00009486    0.00011858   -0.00009682
     atom   28 type  1   force =    -0.00010376   -0.00013124   -0.00008978
     atom   29 type  1   force =     0.00000105    0.00000021    0.00189768
     atom   30 type  1   force =     0.00000416    0.00001519    0.00000251
     atom   31 type  2   force =     0.00000023    0.00000233   -0.00327985
     atom   32 type  2   force =    -0.00000505   -0.00001141    0.00000010
     atom   33 type  2   force =    -0.00000600   -0.00022506   -0.00016658
     atom   34 type  2   force =     0.00000458   -0.00000817    0.00150004
     atom   35 type  2   force =     0.00000557   -0.00000141    0.00000969
     atom   36 type  2   force =    -0.00035749    0.00001595    0.00003770
     atom   37 type  1   force =    -0.00003263   -0.00004680    0.00081134
     atom   38 type  1   force =     0.00000086    0.00000199    0.00189683
     atom   39 type  1   force =     0.00000117    0.00001205   -0.00003215
     atom   40 type  2   force =    -0.00000006    0.00000191   -0.00327987
     atom   41 type  2   force =     0.00000872    0.00001782   -0.00000796
     atom   42 type  2   force =    -0.00044142   -0.00000261   -0.00009353
     atom   43 type  2   force =     0.00000699    0.00000201    0.00150318
     atom   44 type  2   force =    -0.00000472    0.00002873   -0.00002270
     atom   45 type  2   force =    -0.00038255   -0.00074454    0.00054147
     atom   46 type  1   force =     0.00004903   -0.00017316   -0.00008114
     atom   47 type  1   force =     0.00000150    0.00000305    0.00189605
     atom   48 type  1   force =     0.00001165    0.00001171   -0.00002568
     atom   49 type  2   force =     0.00000019    0.00000178   -0.00328018
     atom   50 type  2   force =     0.00001867    0.00001192   -0.00002456
     atom   51 type  2   force =    -0.00004998    0.00017874   -0.00028511
     atom   52 type  2   force =     0.00001055    0.00000849    0.00150216
     atom   53 type  2   force =     0.00001308    0.00000526   -0.00001221
     atom   54 type  2   force =    -0.00065625   -0.00001965    0.00021743
     atom   55 type  1   force =     0.00021481    0.00010500   -0.00011551
     atom   56 type  1   force =     0.00000071    0.00000113    0.00189508
     atom   57 type  1   force =     0.00000030   -0.00000106    0.00002353
     atom   58 type  2   force =     0.00000026    0.00000190   -0.00327991
     atom   59 type  2   force =     0.00002094    0.00002880    0.00001068
     atom   60 type  2   force =     0.00047432   -0.00015124    0.00006809
[...]
     atom  133 type  2   force =     0.00000104   -0.00000333    0.00150716
     atom  134 type  2   force =     0.00000912   -0.00001295    0.00002841
     atom  135 type  2   force =     0.00014335    0.00003326   -0.00027784
     atom  136 type  1   force =     0.00004929    0.00014534   -0.00022758
     atom  137 type  1   force =     0.00000092   -0.00000028    0.00190238
     atom  138 type  1   force =     0.00000090    0.00001896   -0.00001177
     atom  139 type  2   force =     0.00000037    0.00000239   -0.00327978
     atom  140 type  2   force =     0.00000404   -0.00004571    0.00001141
     atom  141 type  2   force =     0.00009462   -0.00038499    0.00000589
     atom  142 type  2   force =    -0.00000075   -0.00001051    0.00150295
     atom  143 type  2   force =    -0.00000382    0.00003202   -0.00005258
     atom  144 type  2   force =    -0.00002770    0.00024006   -0.00017594
     atom  145 type  3   force =    -0.00036753   -0.00053561    0.00017277
     atom  146 type  4   force =    -0.00038787   -0.00023077    0.00094216
     atom  147 type  3   force =     0.00012392   -0.00065223   -0.00013398

     Total force =     0.003722     Total SCF correction =     0.000357
     Energy error            =      2.3E-05 Ry
     Gradient error          =      9.9E-04 Ry/Bohr

     bfgs converged in  22 scf cycles and  21 bfgs steps
     (criteria: energy <  1.0E-04 Ry, force <  1.0E-03 Ry/Bohr)

     End of BFGS Geometry Optimization

     Final energy             =  -27706.4829512262 Ry

     File ./outdir/pwscf.bfgs deleted, as requested
Begin final coordinates

ATOMIC_POSITIONS (angstrom)
Mo               1.5601276856        2.7199362948        6.0936708621
Mo               1.5769197498        0.9104407117       -6.0872367793    0   0   0
Mo               0.0001397638        1.8204947439       -0.0011822211
S                0.0000044503        0.0000077495       -7.6506323570    0   0   0
S                1.5775080001        0.9106347555       -1.5664626762
S               -0.0027435137        1.8151069605        4.5131987930
S                0.0000053241        0.0000068460       -4.5222282367    0   0   0
S                1.5769442506        0.9099210364        1.5658227359
S               -0.0175506693        1.8085691782        7.6549717810
Mo              -0.0164695288        5.4597937595        6.0826530455
Mo               0.0000011799        3.6417399547       -6.0872367793    0   0   0
Mo              -1.5765406454        4.5518171051       -0.0012091514
S               -1.5769141197        2.7313069925       -7.6506323570    0   0   0
S                0.0006165274        3.6415519099       -1.5662838951
S               -1.5724014818        4.5452210866        4.5043891878
S               -1.5769132459        2.7313060890       -4.5222282367    0   0   0
S                0.0002007392        3.6412193537        1.5661277801
S               -1.5816504145        4.5463292962        7.6544316538
Mo              -1.5747714318        8.1939434539        6.0821350073
Mo              -1.5769173901        6.3730391977       -6.0872367793    0   0   0
Mo              -3.1536471811        7.2831511872       -0.0008227248
S               -3.1538326896        5.4626062355       -7.6506323570    0   0   0
S               -1.5768125368        6.3727928500       -1.5665669895
S               -3.1439070614        7.2877423156        4.5073795689
S               -3.1538318159        5.4626053320       -4.5222282367    0   0   0
S               -1.5764674215        6.3727593522        1.5658610577
S               -3.1508605485        7.2815488402        7.6417470305
Mo               3.1465007956       -0.0134591005        6.0851350563
Mo              -3.1538359601        9.1043384407       -6.0872367793    0   0   0
Mo              -4.7304637666       10.0146108612       -0.0016720201
S               -4.7307512596        8.1939054785       -7.6506323570    0   0   0
S               -3.1534048804        9.1039009943       -1.5666745684
S               -4.7290434929       10.0198001146        4.5074142760
S               -4.7307503859        8.1939045750       -4.5222282367    0   0   0
S               -3.1536068318        9.1042727356        1.5657822062
S               -4.7332619613       10.0111414141        7.6572302253
Mo               4.7355467186        2.6861532787        6.0796043909
Mo               4.7307503218        0.9104407117       -6.0872367793    0   0   0
Mo               3.1541506638        1.8207156685       -0.0001358199
S                3.1538350223        0.0000077495       -7.6506323570    0   0   0
S                4.7310557195        0.9105539164       -1.5656940253
S                3.1478090583        1.8100864403        4.5312674284
S                3.1538358961        0.0000068460       -4.5222282367    0   0   0
S                4.7307911400        0.9097186145        1.5673940678
S                3.0907261147        1.7710473653        7.6979842503
Mo               3.1155493450        5.4905976754        6.0819044932
Mo               3.1538317519        3.6417399547       -6.0872367793    0   0   0
Mo               1.5773038044        4.5517994384       -0.0001898360
S                1.5769164523        2.7313069925       -7.6506323570    0   0   0
S                3.1545909673        3.6416999467       -1.5650675485
S                1.5656007756        4.5495667491        4.5319921013
S                1.5769173261        2.7313060890       -4.5222282367    0   0   0
S                3.1535755170        3.6411889582        1.5681732636
S                1.4993088502        4.5213293029        7.6985078688
Mo               1.5703599040        8.2060741001        6.0939837257
Mo               1.5769131819        6.3730391977       -6.0872367793    0   0   0
Mo               0.0002899344        7.2831446120       -0.0010696360
S               -0.0000021176        5.4626062355       -7.6506323570    0   0   0
S                1.5772989717        6.3723769800       -1.5660348505
S                0.0005519922        7.2868632337        4.5162141574
[...]
S                6.3076599001        5.4626053320       -4.5222282367    0   0   0
S                7.8848786993        6.3730559760        1.5671978335
S                6.3274563843        7.3313421476        7.6693169776
Mo               0.0003926783       -0.0031392748        6.0817232116
Mo               6.3076557559        9.1043384407       -6.0872367793    0   0   0
Mo               4.7307528516       10.0144546763       -0.0016745325
S                4.7307404564        8.1939054785       -7.6506323570    0   0   0
S                6.3078406786        9.1037243918       -1.5667948412
S                4.7267130534       10.0160082217        4.5184015871
S                4.7307413301        8.1939045750       -4.5222282367    0   0   0
S                6.3078435895        9.1050705993        1.5653621883
S                4.7347789563       10.0250163479        7.6580813520
Pt               3.2963981871        5.3584130867        9.0268852394
Pd               6.1362513635        5.3655122572        9.1699921644
Pt               4.6993320834        2.9185072745        9.0335317256
End final coordinates

     Writing all to output data dir ./outdir/pwscf.save/ :
     XML data file, charge density, pseudopotentials, collected wavefunctions

     General routines

     Parallel routines

   This run was terminated on:   3:18:16   1Apr2024

   JOB DONE.