     Program PWSCF v.7.2 starts on  3Nov2023 at 18:10:32

     Waiting for input...
     Reading input from standard input
Warning: card &CELL ignored
Warning: card / ignored

     Current dimensions of program PWSCF are:
     Max number of different atomic species (ntypx) = 10
     Max number of k-points (npk) =  40000
     Max angular momentum in pseudopotentials (lmaxx) =  4
     file Mo.pbe-spn-kjpaw_psl.1.0.0.UPF: wavefunction(s)  4S 4D renormalized
     file S.pbe-n-kjpaw_psl.1.0.0.UPF: wavefunction(s)  3S 3P renormalized
     file Pd.pbe-spn-kjpaw_psl.1.0.0.UPF: wavefunction(s)  4S 5S 4D renormalized

     R & G space division:  proc/nbgrp/npool/nimage =      36
     Subspace diagonalization in iterative solution of the eigenvalue problem:
     one sub-group per band group will be used

     Using Slab Decomposition

     bravais-lattice index     =            0
     lattice parameter (alat)  =      23.8395  a.u.
     unit-cell volume          =   28182.8498 (a.u.)^3
     number of atoms/cell      =          147
     number of atomic types    =            3
     number of electrons       =      1302.00
     number of Kohn-Sham states=          781
     kinetic-energy cutoff     =      77.0000  Ry
     charge density cutoff     =     539.0000  Ry
     scf convergence threshold =      1.0E-06
     mixing beta               =       0.2000
     number of iterations used =            8  plain     mixing
     energy convergence thresh.=      1.0E-04
     force convergence thresh. =      1.0E-03
     Exchange-correlation= SLA  PW   PBX  PBC
                           (   1   4   3   4   0   0   0)
     nstep                     =         1000

     Effective Screening Medium Method
     Boundary Conditions: Vacuum-Slab-Vacuum
     total charge in unit cell        =   0.0000
     grid points for fit at edges     =        4

     celldm(1)=  23.839504  celldm(2)=   0.000000  celldm(3)=   0.000000
     celldm(4)=   0.000000  celldm(5)=   0.000000  celldm(6)=   0.000000

     crystal axes: (cart. coord. in units of alat)
               a(1) = (   1.000000   0.000000   0.000000 )
               a(2) = (  -0.500001   0.866026   0.000000 )
               a(3) = (   0.000000   0.000000   2.401941 )

     reciprocal axes: (cart. coord. in units 2 pi/alat)
               b(1) = (  1.000000  0.577351  0.000000 )
               b(2) = (  0.000000  1.154700  0.000000 )
               b(3) = (  0.000000  0.000000  0.416330 )

     PseudoPot. # 1 for Mo read from file:
     ./pseudo/Mo.pbe-spn-kjpaw_psl.1.0.0.UPF
     MD5 check sum: 317bf72632116215fd98f72de1686f13
     Pseudo is Projector augmented-wave + core cor, Zval = 14.0
     Generated using 'atomic' code by A. Dal Corso  v.7.2
     Shape of augmentation charge: PSQ
     Using radial grid of 1229 points,  6 beta functions with:
                l(1) =   0
                l(2) =   0
                l(3) =   1
                l(4) =   1
                l(5) =   2
                l(6) =   2
     Q(r) pseudized with 0 coefficients

     PseudoPot. # 2 for S  read from file:
     ./pseudo/S.pbe-n-kjpaw_psl.1.0.0.UPF
     MD5 check sum: 8b7b5302570d38d5e87fed6a1065abda
     Pseudo is Projector augmented-wave + core cor, Zval =  6.0
     Generated using 'atomic' code by A. Dal Corso  v.7.2
     Shape of augmentation charge: PSQ
     Using radial grid of 1151 points,  6 beta functions with:
                l(1) =   0
                l(2) =   0
                l(3) =   1
                l(4) =   1
                l(5) =   2
                l(6) =   2
     Q(r) pseudized with 0 coefficients

     PseudoPot. # 3 for Pd read from file:
     ./pseudo/Pd.pbe-spn-kjpaw_psl.1.0.0.UPF
     MD5 check sum: a60571a671f2502b8a6a4569d20a6edb
     Pseudo is Projector augmented-wave + core cor, Zval = 18.0
     Generated using 'atomic' code by A. Dal Corso  v.7.2
     Shape of augmentation charge: PSQ
     Using radial grid of 1235 points,  6 beta functions with:
                l(1) =   0
                l(2) =   0
                l(3) =   1
                l(4) =   1
                l(5) =   2
                l(6) =   2
     Q(r) pseudized with 0 coefficients

     atomic species   valence    mass     pseudopotential
        Mo            14.00    95.95000     Mo( 1.00)
        S              6.00    32.06000     S ( 1.00)
        Pd            18.00   106.42000     Pd( 1.00)

     No symmetry found

   Cartesian axes

     site n.     atom                  positions (alat units)
         1           Mo  tau(   1) = (   0.1248625   0.2131281   0.4810783  )
         2           Mo  tau(   2) = (   0.1250004   0.0721694  -0.4825273  )
         3           Mo  tau(   3) = (  -0.0000005   0.1443526  -0.0000490  )
         4           S   tau(   4) = (   0.0000004   0.0000006  -0.6064556  )
         5           S   tau(   5) = (   0.1249809   0.0722325  -0.1242083  )
         6           S   tau(   6) = (  -0.0008091   0.1437924   0.3564499  )
         7           S   tau(   7) = (   0.0000004   0.0000005  -0.3584711  )
         8           S   tau(   8) = (   0.1250266   0.0721270   0.1240857  )
         9           S   tau(   9) = (  -0.0005942   0.1424836   0.6054838  )
        10           Mo  tau(  10) = (  -0.0011099   0.4328730   0.4866737  )
        11           Mo  tau(  11) = (   0.0000001   0.2886759  -0.4825273  )
        12           Mo  tau(  12) = (  -0.1249710   0.3608625  -0.0000153  )
        13           S   tau(  13) = (  -0.1249999   0.2165071  -0.6064556  )
        14           S   tau(  14) = (   0.0000009   0.2886909  -0.1241159  )
        15           S   tau(  15) = (  -0.1236884   0.3618446   0.3606188  )
        16           S   tau(  16) = (  -0.1249998   0.2165070  -0.3584711  )
        17           S   tau(  17) = (   0.0000530   0.2887092   0.1242638  )
        18           S   tau(  18) = (  -0.1316249   0.3573130   0.6109420  )
        19           Mo  tau(  19) = (  -0.1257401   0.6504248   0.4820927  )
        20           Mo  tau(  20) = (  -0.1250002   0.5051824  -0.4825273  )
        21           Mo  tau(  21) = (  -0.2499958   0.5773353  -0.0001714  )
        22           S   tau(  22) = (  -0.2500002   0.4330136  -0.6064556  )
        23           S   tau(  23) = (  -0.1249719   0.5051311  -0.1241932  )
        24           S   tau(  24) = (  -0.2500164   0.5770675   0.3576049  )
        25           S   tau(  25) = (  -0.2500001   0.4330135  -0.3584711  )
        26           S   tau(  26) = (  -0.1250100   0.5052346   0.1241515  )
        27           S   tau(  27) = (  -0.2503695   0.5776584   0.6061514  )
        28           Mo  tau(  28) = (   0.2502170  -0.0003953   0.4806411  )
        29           Mo  tau(  29) = (  -0.2500004   0.7216889  -0.4825273  )
        30           Mo  tau(  30) = (  -0.3749978   0.7938641  -0.0002041  )
        31           S   tau(  31) = (  -0.3750004   0.6495201  -0.6064556  )
        32           S   tau(  32) = (  -0.2499890   0.7216755  -0.1242803  )
        33           S   tau(  33) = (  -0.3749740   0.7932749   0.3566586  )
        34           S   tau(  34) = (  -0.3750004   0.6495200  -0.3584711  )
        35           S   tau(  35) = (  -0.2500089   0.7216778   0.1239952  )
        36           S   tau(  36) = (  -0.3749998   0.7939174   0.6051309  )
        37           Mo  tau(  37) = (   0.3753608   0.2157704   0.4822604  )
        38           Mo  tau(  38) = (   0.3750004   0.0721694  -0.4825273  )
        39           Mo  tau(  39) = (   0.2499960   0.1443611  -0.0001003  )
        40           S   tau(  40) = (   0.2500004   0.0000006  -0.6064556  )
        41           S   tau(  41) = (   0.3750017   0.0721909  -0.1242276  )
        42           S   tau(  42) = (   0.2507085   0.1439928   0.3565793  )
        43           S   tau(  43) = (   0.2500004   0.0000005  -0.3584711  )
        44           S   tau(  44) = (   0.3750105   0.0721153   0.1240138  )
        45           S   tau(  45) = (   0.2503040   0.1425185   0.6055897  )
        46           Mo  tau(  46) = (   0.2508295   0.4328457   0.4866827  )
        47           Mo  tau(  47) = (   0.2500001   0.2886759  -0.4825273  )
        48           Mo  tau(  48) = (   0.1249947   0.3608692  -0.0000343  )
        49           S   tau(  49) = (   0.1250001   0.2165071  -0.6064556  )
        50           S   tau(  50) = (   0.2499709   0.2887106  -0.1241515  )
        51           S   tau(  51) = (   0.1248475   0.3620695   0.3632119  )
        52           S   tau(  52) = (   0.1250002   0.2165070  -0.3584711  )
        53           S   tau(  53) = (   0.2499461   0.2887051   0.1242364  )
        54           S   tau(  54) = (   0.1248217   0.3502704   0.6102012  )
        55           Mo  tau(  55) = (   0.1249300   0.6515066   0.4828014  )
        56           Mo  tau(  56) = (   0.1249998   0.5051824  -0.4825273  )
        57           Mo  tau(  57) = (   0.0000129   0.5773133  -0.0000993  )
        58           S   tau(  58) = (  -0.0000002   0.4330136  -0.6064556  )
        59           S   tau(  59) = (   0.1250046   0.5051576  -0.1241791  )
        60           S   tau(  60) = (   0.0000991   0.5758547   0.3610070  )
[...]
       133           S   tau( 133) = (   0.4999999   0.4330135  -0.3584711  )
       134           S   tau( 134) = (   0.6249981   0.5052504   0.1240736  )
       135           S   tau( 135) = (   0.5003122   0.5776902   0.6062470  )
       136           Mo  tau( 136) = (  -0.0002805  -0.0004824   0.4806096  )
       137           Mo  tau( 137) = (   0.4999996   0.7216889  -0.4825273  )
       138           Mo  tau( 138) = (   0.3749756   0.7938309  -0.0001159  )
       139           S   tau( 139) = (   0.3749996   0.6495201  -0.6064556  )
       140           S   tau( 140) = (   0.4999628   0.7216864  -0.1242513  )
       141           S   tau( 141) = (   0.3747357   0.7932164   0.3566619  )
       142           S   tau( 142) = (   0.3749996   0.6495200  -0.3584711  )
       143           S   tau( 143) = (   0.5000348   0.7216656   0.1240143  )
       144           S   tau( 144) = (   0.3751928   0.7949639   0.6056664  )
       145           Pd  tau( 145) = (   0.2448410   0.4348549   0.7173028  )
       146           Pd  tau( 146) = (   0.0055759   0.4353384   0.7172832  )
       147           Pd  tau( 147) = (   0.5006610   0.4329656   0.7268410  )

     DFT-D3 Dispersion Correction (3-body terms):
       Reference C6 values for interpolation:

         atom   Coordination number   C6
         S          0.000           268.01
         S          0.995           261.99
         S          1.990           251.62
         Mo         0.000          1691.79
         Mo         1.942          1004.01
         Mo        11.056           674.22
         Pd         0.000          1217.01
         Pd         1.863           573.90
         Pd         5.710           531.75

       Values used:

         atom   Coordination number  R0_AB[au]  C6      C8
         Mo        10.164            3.547    674.22  77634.20
         Mo        10.189            3.547    674.22  77634.20
         Mo        10.201            3.547    674.22  77634.20
         S          3.753            3.128    251.62  12327.25
[...]
     atom   12 type  1   force =     0.00000008   -0.00000392    0.00000372
     atom   13 type  2   force =     0.00000000    0.00000000    0.00000000
     atom   14 type  2   force =    -0.00000415    0.00000071   -0.00000235
     atom   15 type  2   force =     0.00001188   -0.00000468    0.00000707
     atom   16 type  2   force =     0.00000000    0.00000000    0.00000000
     atom   17 type  2   force =     0.00000573   -0.00000765    0.00000326
     atom   18 type  2   force =     0.00000253   -0.00000050    0.00000191
     atom   19 type  1   force =     0.00001054   -0.00000118    0.00001120
     atom   20 type  1   force =     0.00000000    0.00000000    0.00000000
     atom   21 type  1   force =     0.00001024    0.00000920   -0.00000525
     atom   22 type  2   force =     0.00000000    0.00000000    0.00000000
     atom   23 type  2   force =     0.00000077    0.00000396    0.00000679
     atom   24 type  2   force =     0.00000641    0.00000048    0.00000383
     atom   25 type  2   force =     0.00000000    0.00000000    0.00000000
     atom   26 type  2   force =     0.00000430   -0.00000156    0.00000204
     atom   27 type  2   force =     0.00001294   -0.00000434    0.00000563
     atom   28 type  1   force =    -0.00002599    0.00003728   -0.00000120
     atom   29 type  1   force =     0.00000000    0.00000000    0.00000000
     atom   30 type  1   force =    -0.00000050    0.00001008    0.00002551
     atom   31 type  2   force =     0.00000000    0.00000000    0.00000000
     atom   32 type  2   force =     0.00000722    0.00000046    0.00000102
     atom   33 type  2   force =     0.00000875    0.00001992   -0.00000168
     atom   34 type  2   force =     0.00000000    0.00000000    0.00000000
     atom   35 type  2   force =     0.00000026    0.00001474   -0.00000273
     atom   36 type  2   force =     0.00000236    0.00000398   -0.00000211
     atom   37 type  1   force =    -0.00001429    0.00002435    0.00002744
     atom   38 type  1   force =     0.00000000    0.00000000    0.00000000
     atom   39 type  1   force =    -0.00000774   -0.00001412    0.00003093
     atom   40 type  2   force =     0.00000000    0.00000000    0.00000000
     atom   41 type  2   force =     0.00000329   -0.00000468   -0.00000399
     atom   42 type  2   force =    -0.00000153   -0.00000321    0.00000360
     atom   43 type  2   force =     0.00000000    0.00000000    0.00000000
     atom   44 type  2   force =    -0.00000745   -0.00000210    0.00000453
     atom   45 type  2   force =     0.00000211    0.00000632   -0.00000963
     atom   46 type  1   force =    -0.00000677   -0.00004420    0.00003841
     atom   47 type  1   force =     0.00000000    0.00000000    0.00000000
     atom   48 type  1   force =    -0.00001735   -0.00000815    0.00002456
     atom   49 type  2   force =     0.00000000    0.00000000    0.00000000
     atom   50 type  2   force =     0.00000050   -0.00000189   -0.00000923
     atom   51 type  2   force =    -0.00000733   -0.00000720    0.00000885
     atom   52 type  2   force =     0.00000000    0.00000000    0.00000000
     atom   53 type  2   force =    -0.00000879   -0.00001137    0.00000370
     atom   54 type  2   force =    -0.00000363    0.00000239   -0.00000716
     atom   55 type  1   force =    -0.00000140   -0.00000604    0.00001947
     atom   56 type  1   force =     0.00000000    0.00000000    0.00000000
     atom   57 type  1   force =    -0.00000990    0.00000162   -0.00000577
     atom   58 type  2   force =     0.00000000    0.00000000    0.00000000
     atom   59 type  2   force =    -0.00000497    0.00000681    0.00000184
     atom   60 type  2   force =     0.00000125   -0.00000112   -0.00000535
[...]
     atom  133 type  2   force =     0.00000000    0.00000000    0.00000000
     atom  134 type  2   force =     0.00000752    0.00000662   -0.00000366
     atom  135 type  2   force =    -0.00000001   -0.00000333    0.00001139
     atom  136 type  1   force =    -0.00001197    0.00002875    0.00000517
     atom  137 type  1   force =     0.00000000    0.00000000    0.00000000
     atom  138 type  1   force =     0.00000192    0.00001391   -0.00000104
     atom  139 type  2   force =     0.00000000    0.00000000    0.00000000
     atom  140 type  2   force =    -0.00000371    0.00000128    0.00000279
     atom  141 type  2   force =    -0.00000321    0.00000741   -0.00000095
     atom  142 type  2   force =     0.00000000    0.00000000    0.00000000
     atom  143 type  2   force =     0.00000626    0.00001809   -0.00000313
     atom  144 type  2   force =    -0.00000407    0.00001240   -0.00000315
     atom  145 type  3   force =    -0.00002722    0.00004218    0.00003964
     atom  146 type  3   force =    -0.00001027   -0.00002658   -0.00000872
     atom  147 type  3   force =    -0.00000113   -0.00002467   -0.00002113

     DFT-D3 dispersion contribution to forces:
     atom    1 type  1   force =     0.00009010    0.00061351   -0.00176594
     atom    2 type  1   force =    -0.00000002   -0.00000045    0.00260440
     atom    3 type  1   force =    -0.00000023   -0.00001960   -0.00001355
     atom    4 type  2   force =    -0.00000001   -0.00000008    0.00441042
     atom    5 type  2   force =     0.00000001   -0.00000263   -0.00004471
     atom    6 type  2   force =     0.00002285    0.00002806   -0.00005161
     atom    7 type  2   force =     0.00000007   -0.00000081    0.00023726
     atom    8 type  2   force =    -0.00000052   -0.00003035    0.00010769
     atom    9 type  2   force =     0.00017721    0.00073759   -0.00408669
     atom   10 type  1   force =     0.00035307   -0.00000252   -0.00211496
     atom   11 type  1   force =     0.00000003    0.00000031    0.00260429
     atom   12 type  1   force =    -0.00000342   -0.00000981   -0.00005110
     atom   13 type  2   force =    -0.00000002    0.00000001    0.00441022
     atom   14 type  2   force =     0.00000024   -0.00000056   -0.00005268
     atom   15 type  2   force =     0.00006387    0.00000667    0.00020250
     atom   16 type  2   force =     0.00000001    0.00000045    0.00023721
     atom   17 type  2   force =    -0.00000215   -0.00002811    0.00009926
     atom   18 type  2   force =     0.00011748    0.00019244   -0.00422930
     atom   19 type  1   force =     0.00016824   -0.00037072   -0.00208579
     atom   20 type  1   force =     0.00000003    0.00000041    0.00260519
     atom   21 type  1   force =    -0.00000032    0.00001684   -0.00003652
     atom   22 type  2   force =     0.00000000   -0.00000003    0.00441024
     atom   23 type  2   force =    -0.00000049    0.00000327   -0.00005321
     atom   24 type  2   force =    -0.00000157   -0.00000131   -0.00002231
     atom   25 type  2   force =     0.00000009    0.00000077    0.00023709
     atom   26 type  2   force =    -0.00000665    0.00002359    0.00008640
     atom   27 type  2   force =    -0.00000054   -0.00055509   -0.00395959
     atom   28 type  1   force =     0.00000036    0.00012049   -0.00239053
     atom   29 type  1   force =    -0.00000003   -0.00000031    0.00260528
     atom   30 type  1   force =     0.00000312    0.00001257    0.00000142
     atom   31 type  2   force =     0.00000002    0.00000007    0.00441049
     atom   32 type  2   force =    -0.00000013   -0.00000037   -0.00004583
     atom   33 type  2   force =    -0.00000015    0.00000797   -0.00014228
     atom   34 type  2   force =     0.00000005   -0.00000023    0.00023732
     atom   35 type  2   force =    -0.00000037    0.00003043    0.00010747
     atom   36 type  2   force =    -0.00009851   -0.00024356   -0.00427951
     atom   37 type  1   force =    -0.00008799    0.00061466   -0.00176679
     atom   38 type  1   force =    -0.00000009   -0.00000048    0.00260427
     atom   39 type  1   force =     0.00000008   -0.00002318   -0.00001410
     atom   40 type  2   force =    -0.00000000   -0.00000005    0.00441040
     atom   41 type  2   force =    -0.00000034   -0.00000266   -0.00004481
     atom   42 type  2   force =    -0.00000084    0.00005124   -0.00000842
     atom   43 type  2   force =    -0.00000005   -0.00000085    0.00023698
     atom   44 type  2   force =     0.00000110   -0.00002991    0.00010753
     atom   45 type  2   force =     0.00000118    0.00096377   -0.00396952
     atom   46 type  1   force =     0.00000147    0.00001711   -0.00173231
     atom   47 type  1   force =    -0.00000008    0.00000032    0.00260421
     atom   48 type  1   force =    -0.00000373   -0.00001424   -0.00006384
     atom   49 type  2   force =     0.00000002   -0.00000000    0.00441014
     atom   50 type  2   force =    -0.00000018   -0.00000069   -0.00005344
     atom   51 type  2   force =     0.00003854    0.00004921    0.00050310
     atom   52 type  2   force =     0.00000001    0.00000040    0.00023709
     atom   53 type  2   force =     0.00000067   -0.00002971    0.00010163
     atom   54 type  2   force =     0.00027998    0.00025488   -0.00420548
     atom   55 type  1   force =     0.00011462   -0.00063402   -0.00177608
     atom   56 type  1   force =    -0.00000004    0.00000038    0.00260512
     atom   57 type  1   force =    -0.00000594    0.00001749   -0.00004787
     atom   58 type  2   force =    -0.00000002   -0.00000001    0.00441015
     atom   59 type  2   force =    -0.00000019    0.00000290   -0.00005595
     atom   60 type  2   force =     0.00004128   -0.00006056    0.00022821
[...]
     atom  133 type  2   force =     0.00000003    0.00000083    0.00023712
     atom  134 type  2   force =     0.00000564    0.00002342    0.00008703
     atom  135 type  2   force =    -0.00046528   -0.00048476   -0.00414824
     atom  136 type  1   force =    -0.00000628    0.00001495   -0.00238062
     atom  137 type  1   force =     0.00000003   -0.00000028    0.00260526
     atom  138 type  1   force =     0.00000090    0.00001495   -0.00000835
     atom  139 type  2   force =     0.00000005    0.00000006    0.00441038
     atom  140 type  2   force =     0.00000068    0.00000006   -0.00004737
     atom  141 type  2   force =     0.00001308    0.00000234   -0.00010330
     atom  142 type  2   force =    -0.00000002   -0.00000027    0.00023740
     atom  143 type  2   force =     0.00000858    0.00002339    0.00011148
     atom  144 type  2   force =    -0.00002432   -0.00053531   -0.00419174
     atom  145 type  3   force =     0.00000959    0.00002316   -0.00628292
     atom  146 type  3   force =     0.00018286   -0.00000676   -0.00619810
     atom  147 type  3   force =    -0.00018902   -0.00000724   -0.00621822

     Total force =     0.002461     Total SCF correction =     0.000185
     Energy error            =      1.5E-05 Ry
     Gradient error          =      7.4E-04 Ry/Bohr

     bfgs converged in  22 scf cycles and  21 bfgs steps
     (criteria: energy <  1.0E-04 Ry, force <  1.0E-03 Ry/Bohr)

     End of BFGS Geometry Optimization

     Final energy             =  -25381.0865520083 Ry

     File ./outdir/pwscf.bfgs deleted, as requested
Begin final coordinates

ATOMIC_POSITIONS (angstrom)
Mo            1.5760229237        2.6945278380        6.0644656783
Mo            1.5769197498        0.9104407117       -6.0872367793    0   0   0
Mo           -0.0001779973        1.8209614789       -0.0010329008
S             0.0000044503        0.0000077495       -7.6506323570    0   0   0
S             1.5770294336        0.9110048443       -1.5665912248
S            -0.0105874662        1.8185794981        4.4941637293
S             0.0000053241        0.0000068460       -4.5222282367    0   0   0
S             1.5763617105        0.9093610394        1.5652185538
S            -0.0020845001        1.8006895434        7.6354875814
Mo           -0.0085623656        5.4597720784        6.1354487330
Mo            0.0000011799        3.6417399547       -6.0872367793    0   0   0
Mo           -1.5768108592        4.5523965595       -0.0002888447
S            -1.5769141197        2.7313069925       -7.6506323570    0   0   0
S             0.0000206636        3.6419578210       -1.5658744292
S            -1.5626903805        4.5674769141        4.5513601027
S            -1.5769132459        2.7313060890       -4.5222282367    0   0   0
S             0.0002218667        3.6420309086        1.5672705038
S            -1.6430075441        4.5052941872        7.7122190271
Mo           -1.5853943092        8.2037062998        6.0784793542
Mo           -1.5769173901        6.3730391977       -6.0872367793    0   0   0
Mo           -3.1539054652        7.2830596652       -0.0022311371
S            -3.1538326896        5.4626062355       -7.6506323570    0   0   0
S            -1.5769075337        6.3721756617       -1.5671888668
S            -3.1544964247        7.2730764019        4.5142410346
S            -3.1538318159        5.4626053320       -4.5222282367    0   0   0
S            -1.5768872225        6.3737618327        1.5657452604
S            -3.1546428321        7.2921247923        7.6501941802
Mo            3.1533679037       -0.0076574745        6.0495974592
Mo           -3.1538359601        9.1043384407       -6.0872367793    0   0   0
Mo           -4.7309601547       10.0143463517       -0.0023320838
S            -4.7307512596        8.1939054785       -7.6506323570    0   0   0
S            -3.1538042508        9.1041333051       -1.5677548581
S            -4.7352165773       10.0030541587        4.4907615657
S            -4.7307503859        8.1939045750       -4.5222282367    0   0   0
S            -3.1540027935        9.1037060636        1.5642968176
S            -4.7264356754       10.0278221146        7.6310869045
Mo            4.7307182597        2.6948146881        6.0650324621
Mo            4.7307503218        0.9104407117       -6.0872367793    0   0   0
Mo            3.1537459295        1.8210242142       -0.0001746369
S             3.1538350223        0.0000077495       -7.6506323570    0   0   0
S             4.7306642926        0.9110394601       -1.5663718952
S             3.1546485243        1.8112103445        4.4808970791
S             3.1538358961        0.0000068460       -4.5222282367    0   0   0
S             4.7310798219        0.9093933684        1.5653292146
S             3.1530256152        1.7841368322        7.6286730542
Mo            3.1527621410        5.4589656320        6.1183169063
Mo            3.1538317519        3.6417399547       -6.0872367793    0   0   0
Mo            1.5768857105        4.5523138454       -0.0002121903
S             1.5769164523        2.7313069925       -7.6506323570    0   0   0
S             3.1538386800        3.6417676949       -1.5653560135
S             1.5684512686        4.5666144518        4.5670668867
S             1.5769173261        2.7313060890       -4.5222282367    0   0   0
S             3.1536019710        3.6426175886        1.5683428475
S             1.5966681266        4.4354159050        7.6973399920
Mo            1.5775714457        8.2179481192        6.0823674726
Mo            1.5769131819        6.3730391977       -6.0872367793    0   0   0
Mo            0.0000676759        7.2828390398       -0.0020708414
S            -0.0000021176        5.4626062355       -7.6506323570    0   0   0
S             1.5769959484        6.3721361415       -1.5670257771
S            -0.0000093574        7.2627132486        4.5485440700
[...]
S             6.3076599001        5.4626053320       -4.5222282367    0   0   0
S             7.8844339326        6.3738740313        1.5657970396
S             6.3082675325        7.3888465878        7.6855837716
Mo           -0.0027455953       -0.0029796171        6.0583313088
Mo            6.3076557559        9.1043384407       -6.0872367793    0   0   0
Mo            4.7304448162       10.0143152013       -0.0018955035
S             4.7307404564        8.1939054785       -7.6506323570    0   0   0
S             6.3072779560        9.1039264133       -1.5675068945
S             4.7279468350       10.0121842833        4.4920146403
S             4.7307413301        8.1939045750       -4.5222282367    0   0   0
S             6.3075117386        9.1030550274        1.5649250590
S             4.7283578992       10.0411513030        7.6371802923
Pd            3.1546165853        5.5002905248        9.1094941805
Pd            0.0870013160        5.4941866852        9.0459741747
Pd            6.2190511340        5.4935973471        9.0417457669
End final coordinates

     Writing all to output data dir ./outdir/pwscf.save/

     General routines

     Parallel routines

   This run was terminated on:  20:45:16   4Nov2023

   JOB DONE.
Application 11372234 resources: utime ~3401136s, stime ~43270s, Rss ~2384812, inblocks ~0, outblocks ~39184448