     Program PWSCF v.7.2 starts on  3Nov2023 at 16:46: 2

     Waiting for input...
     Reading input from standard input
Warning: card &CELL ignored
Warning: card / ignored

     Current dimensions of program PWSCF are:
     Max number of different atomic species (ntypx) = 10
     Max number of k-points (npk) =  40000
     Max angular momentum in pseudopotentials (lmaxx) =  4
     file Mo.pbe-spn-kjpaw_psl.1.0.0.UPF: wavefunction(s)  4S 4D renormalized
     file S.pbe-n-kjpaw_psl.1.0.0.UPF: wavefunction(s)  3S 3P renormalized
     file Au.pbe-spfn-kjpaw_psl.1.0.0.UPF: wavefunction(s)  5P 5D 4F renormalized

     R & G space division:  proc/nbgrp/npool/nimage =      36
     Subspace diagonalization in iterative solution of the eigenvalue problem:
     one sub-group per band group will be used

     Using Slab Decomposition

     bravais-lattice index     =            0
     lattice parameter (alat)  =      23.8395  a.u.
     unit-cell volume          =   28182.8498 (a.u.)^3
     number of atoms/cell      =          145
     number of atomic types    =            3
     number of electrons       =      1281.00
     number of Kohn-Sham states=          769
     kinetic-energy cutoff     =      77.0000  Ry
     charge density cutoff     =     539.0000  Ry
     scf convergence threshold =      1.0E-06
     mixing beta               =       0.2000
     number of iterations used =            8  plain     mixing
     energy convergence thresh.=      1.0E-04
     force convergence thresh. =      1.0E-03
     Exchange-correlation= SLA  PW   PBX  PBC
                           (   1   4   3   4   0   0   0)
     nstep                     =         1000

     Effective Screening Medium Method
     Boundary Conditions: Vacuum-Slab-Vacuum
     total charge in unit cell        =   0.0000
     grid points for fit at edges     =        4

     celldm(1)=  23.839504  celldm(2)=   0.000000  celldm(3)=   0.000000
     celldm(4)=   0.000000  celldm(5)=   0.000000  celldm(6)=   0.000000

     crystal axes: (cart. coord. in units of alat)
               a(1) = (   1.000000   0.000000   0.000000 )
               a(2) = (  -0.500001   0.866026   0.000000 )
               a(3) = (   0.000000   0.000000   2.401941 )

     reciprocal axes: (cart. coord. in units 2 pi/alat)
               b(1) = (  1.000000  0.577351  0.000000 )
               b(2) = (  0.000000  1.154700  0.000000 )
               b(3) = (  0.000000  0.000000  0.416330 )

     PseudoPot. # 1 for Mo read from file:
     ./pseudo/Mo.pbe-spn-kjpaw_psl.1.0.0.UPF
     MD5 check sum: 317bf72632116215fd98f72de1686f13
     Pseudo is Projector augmented-wave + core cor, Zval = 14.0
     Generated using 'atomic' code by A. Dal Corso  v.7.2
     Shape of augmentation charge: PSQ
     Using radial grid of 1229 points,  6 beta functions with:
                l(1) =   0
                l(2) =   0
                l(3) =   1
                l(4) =   1
                l(5) =   2
                l(6) =   2
     Q(r) pseudized with 0 coefficients

     PseudoPot. # 2 for S  read from file:
     ./pseudo/S.pbe-n-kjpaw_psl.1.0.0.UPF
     MD5 check sum: 8b7b5302570d38d5e87fed6a1065abda
     Pseudo is Projector augmented-wave + core cor, Zval =  6.0
     Generated using 'atomic' code by A. Dal Corso  v.7.2
     Shape of augmentation charge: PSQ
     Using radial grid of 1151 points,  6 beta functions with:
                l(1) =   0
                l(2) =   0
                l(3) =   1
                l(4) =   1
                l(5) =   2
                l(6) =   2
     Q(r) pseudized with 0 coefficients

     PseudoPot. # 3 for Au read from file:
     ./pseudo/Au.pbe-spfn-kjpaw_psl.1.0.0.UPF
     MD5 check sum: c4676eff00405da86a99eb409921eac8
     Pseudo is Projector augmented-wave + core cor, Zval = 33.0
     Generated using 'atomic' code by A. Dal Corso  v.7.2
     Shape of augmentation charge: PSQ
     Using radial grid of 1279 points,  8 beta functions with:
                l(1) =   0
                l(2) =   0
                l(3) =   1
                l(4) =   1
                l(5) =   2
                l(6) =   2
                l(7) =   3
                l(8) =   3
     Q(r) pseudized with 0 coefficients

     atomic species   valence    mass     pseudopotential
        Mo            14.00    95.95000     Mo( 1.00)
        S              6.00    32.06000     S ( 1.00)
        Au            33.00   196.96657     Au( 1.00)

     No symmetry found

   Cartesian axes

     site n.     atom                  positions (alat units)
         1           Mo  tau(   1) = (   0.1249983   0.2165050   0.4823527  )
         2           Mo  tau(   2) = (   0.1250004   0.0721694  -0.4825273  )
         3           Mo  tau(   3) = (  -0.0000019   0.1443377  -0.0000751  )
         4           S   tau(   4) = (   0.0000004   0.0000006  -0.6064556  )
         5           S   tau(   5) = (   0.1249982   0.0721692  -0.1241671  )
         6           S   tau(   6) = (  -0.0000016   0.1443364   0.3582431  )
         7           S   tau(   7) = (   0.0000004   0.0000005  -0.3584711  )
         8           S   tau(   8) = (   0.1249982   0.0721691   0.1241550  )
         9           S   tau(   9) = (  -0.0000015   0.1443364   0.6067201  )
        10           Mo  tau(  10) = (  -0.0000021   0.4330115   0.4823527  )
        11           Mo  tau(  11) = (   0.0000001   0.2886759  -0.4825273  )
        12           Mo  tau(  12) = (  -0.1250009   0.3608432  -0.0000744  )
        13           S   tau(  13) = (  -0.1249999   0.2165071  -0.6064556  )
        14           S   tau(  14) = (  -0.0000017   0.2886753  -0.1241667  )
        15           S   tau(  15) = (  -0.1250020   0.3608427   0.3582430  )
        16           S   tau(  16) = (  -0.1249998   0.2165070  -0.3584711  )
        17           S   tau(  17) = (  -0.0000017   0.2886752   0.1241551  )
        18           S   tau(  18) = (  -0.1250020   0.3608428   0.6067200  )
        19           Mo  tau(  19) = (  -0.1250025   0.6495181   0.4823527  )
        20           Mo  tau(  20) = (  -0.1250002   0.5051824  -0.4825273  )
        21           Mo  tau(  21) = (  -0.2500019   0.5773502  -0.0000747  )
        22           S   tau(  22) = (  -0.2500002   0.4330136  -0.6064556  )
        23           S   tau(  23) = (  -0.1250019   0.5051815  -0.1241659  )
        24           S   tau(  24) = (  -0.2500023   0.5773492   0.3582430  )
        25           S   tau(  25) = (  -0.2500001   0.4330135  -0.3584711  )
        26           S   tau(  26) = (  -0.1250021   0.5051816   0.1241548  )
        27           S   tau(  27) = (  -0.2500023   0.5773492   0.6067201  )
        28           Mo  tau(  28) = (   0.2499985  -0.0000014   0.4823528  )
        29           Mo  tau(  29) = (  -0.2500004   0.7216889  -0.4825273  )
        30           Mo  tau(  30) = (  -0.3750035   0.7938587  -0.0000751  )
        31           S   tau(  31) = (  -0.3750004   0.6495201  -0.6064556  )
        32           S   tau(  32) = (  -0.2500024   0.7216883  -0.1241659  )
        33           S   tau(  33) = (  -0.3750023   0.7938557   0.3582430  )
        34           S   tau(  34) = (  -0.3750004   0.6495200  -0.3584711  )
        35           S   tau(  35) = (  -0.2500028   0.7216884   0.1241544  )
        36           S   tau(  36) = (  -0.3750023   0.7938556   0.6067199  )
        37           Mo  tau(  37) = (   0.3749981   0.2165050   0.4823525  )
        38           Mo  tau(  38) = (   0.3750004   0.0721694  -0.4825273  )
        39           Mo  tau(  39) = (   0.2499973   0.1443382  -0.0000750  )
        40           S   tau(  40) = (   0.2500004   0.0000006  -0.6064556  )
        41           S   tau(  41) = (   0.3749982   0.0721689  -0.1241664  )
        42           S   tau(  42) = (   0.2499983   0.1443364   0.3582430  )
        43           S   tau(  43) = (   0.2500004   0.0000005  -0.3584711  )
        44           S   tau(  44) = (   0.3749982   0.0721692   0.1241548  )
        45           S   tau(  45) = (   0.2499984   0.1443363   0.6067201  )
        46           Mo  tau(  46) = (   0.2499981   0.4330115   0.4823527  )
        47           Mo  tau(  47) = (   0.2500001   0.2886759  -0.4825273  )
        48           Mo  tau(  48) = (   0.1249978   0.3608446  -0.0000747  )
        49           S   tau(  49) = (   0.1250001   0.2165071  -0.6064556  )
        50           S   tau(  50) = (   0.2499977   0.2886754  -0.1241668  )
        51           S   tau(  51) = (   0.1249981   0.3608427   0.3582430  )
        52           S   tau(  52) = (   0.1250002   0.2165070  -0.3584711  )
        53           S   tau(  53) = (   0.2499978   0.2886754   0.1241550  )
        54           S   tau(  54) = (   0.1249981   0.3608427   0.6067200  )
        55           Mo  tau(  55) = (   0.1249976   0.6495181   0.4823528  )
        56           Mo  tau(  56) = (   0.1249998   0.5051824  -0.4825273  )
        57           Mo  tau(  57) = (  -0.0000011   0.5773502  -0.0000746  )
        58           S   tau(  58) = (  -0.0000002   0.4330136  -0.6064556  )
        59           S   tau(  59) = (   0.1249978   0.5051816  -0.1241667  )
        60           S   tau(  60) = (  -0.0000023   0.5773491   0.3582431  )
[...]
       131           S   tau( 131) = (   0.6249978   0.5051817  -0.1241660  )
       132           S   tau( 132) = (   0.4999980   0.5773491   0.3582431  )
       133           S   tau( 133) = (   0.4999999   0.4330135  -0.3584711  )
       134           S   tau( 134) = (   0.6249975   0.5051818   0.1241544  )
       135           S   tau( 135) = (   0.4999981   0.5773491   0.6067201  )
       136           Mo  tau( 136) = (  -0.0000012  -0.0000013   0.4823527  )
       137           Mo  tau( 137) = (   0.4999996   0.7216889  -0.4825273  )
       138           Mo  tau( 138) = (   0.3749969   0.7938580  -0.0000749  )
       139           S   tau( 139) = (   0.3749996   0.6495201  -0.6064556  )
       140           S   tau( 140) = (   0.4999973   0.7216884  -0.1241666  )
       141           S   tau( 141) = (   0.3749976   0.7938558   0.3582430  )
       142           S   tau( 142) = (   0.3749996   0.6495200  -0.3584711  )
       143           S   tau( 143) = (   0.4999974   0.7216884   0.1241546  )
       144           S   tau( 144) = (   0.3749976   0.7938557   0.6067202  )
       145           Au  tau( 145) = (   0.1250067   0.3608311   0.8048942  )

     DFT-D3 Dispersion Correction (3-body terms):
       Reference C6 values for interpolation:

         atom   Coordination number   C6
         S          0.000           268.01
         S          0.995           261.99
         S          1.990           251.62
         Mo         0.000          1691.79
         Mo         1.942          1004.01
         Mo        11.056           674.22
         Au         0.000           684.71
         Au         0.985           634.31

       Values used:

         atom   Coordination number  R0_AB[au]  C6      C8
         Mo        10.196            3.547    674.22  77634.20
         Mo        10.189            3.547    674.22  77634.20
         Mo        10.201            3.547    674.22  77634.20
[...]
     atom   13 type  2   force =     0.00000000    0.00000000    0.00000000
     atom   14 type  2   force =     0.00000001    0.00000044   -0.00000079
     atom   15 type  2   force =     0.00000562    0.00000833   -0.00002766
     atom   16 type  2   force =     0.00000000    0.00000000    0.00000000
     atom   17 type  2   force =     0.00000250    0.00000195    0.00000371
     atom   18 type  2   force =    -0.00000141    0.00000483   -0.00002146
     atom   19 type  1   force =    -0.00000467   -0.00002276   -0.00010677
     atom   20 type  1   force =     0.00000000    0.00000000    0.00000000
     atom   21 type  1   force =    -0.00000283    0.00000187   -0.00000106
     atom   22 type  2   force =     0.00000000    0.00000000    0.00000000
     atom   23 type  2   force =    -0.00000119    0.00000096    0.00000018
     atom   24 type  2   force =     0.00000534   -0.00000292   -0.00002381
     atom   25 type  2   force =     0.00000000    0.00000000    0.00000000
     atom   26 type  2   force =    -0.00000020    0.00000045    0.00000246
     atom   27 type  2   force =     0.00000121   -0.00000066   -0.00002536
     atom   28 type  1   force =    -0.00002044    0.00000623   -0.00010815
     atom   29 type  1   force =     0.00000000    0.00000000    0.00000000
     atom   30 type  1   force =     0.00000105   -0.00000423   -0.00000113
     atom   31 type  2   force =     0.00000000    0.00000000    0.00000000
     atom   32 type  2   force =    -0.00000121   -0.00000110    0.00000112
     atom   33 type  2   force =     0.00000057    0.00000556   -0.00002438
     atom   34 type  2   force =     0.00000000    0.00000000    0.00000000
     atom   35 type  2   force =    -0.00000119   -0.00000107   -0.00000090
     atom   36 type  2   force =     0.00000058    0.00000047   -0.00002493
     atom   37 type  1   force =    -0.00000818    0.00000522   -0.00011314
     atom   38 type  1   force =     0.00000000    0.00000000    0.00000000
     atom   39 type  1   force =    -0.00000471    0.00000048   -0.00000123
     atom   40 type  2   force =     0.00000000    0.00000000    0.00000000
     atom   41 type  2   force =    -0.00000196   -0.00000109   -0.00000114
     atom   42 type  2   force =    -0.00000897    0.00000131   -0.00002811
     atom   43 type  2   force =     0.00000000    0.00000000    0.00000000
     atom   44 type  2   force =    -0.00000182   -0.00000063    0.00000108
     atom   45 type  2   force =    -0.00000264   -0.00000309   -0.00002163
     atom   46 type  1   force =     0.00002975    0.00001733   -0.00013386
     atom   47 type  1   force =     0.00000000    0.00000000    0.00000000
     atom   48 type  1   force =     0.00000035    0.00000085    0.00000743
     atom   49 type  2   force =     0.00000000    0.00000000    0.00000000
     atom   50 type  2   force =     0.00000022    0.00000010   -0.00000057
     atom   51 type  2   force =     0.00000038    0.00000051   -0.00003726
     atom   52 type  2   force =     0.00000000    0.00000000    0.00000000
     atom   53 type  2   force =    -0.00000208    0.00000160    0.00000373
     atom   54 type  2   force =    -0.00000009    0.00000034   -0.00001192
     atom   55 type  1   force =    -0.00000109   -0.00001023   -0.00011209
     atom   56 type  1   force =     0.00000000    0.00000000    0.00000000
     atom   57 type  1   force =    -0.00000282   -0.00000506   -0.00000128
     atom   58 type  2   force =     0.00000000    0.00000000    0.00000000
     atom   59 type  2   force =    -0.00000018    0.00000014   -0.00000053
     atom   60 type  2   force =    -0.00000385   -0.00000865   -0.00002757
[...]
     atom  131 type  2   force =     0.00000013    0.00000175    0.00000112
     atom  132 type  2   force =    -0.00000525   -0.00000341   -0.00002407
     atom  133 type  2   force =     0.00000000    0.00000000    0.00000000
     atom  134 type  2   force =     0.00000004    0.00000173   -0.00000093
     atom  135 type  2   force =    -0.00000049   -0.00000095   -0.00002529
     atom  136 type  1   force =     0.00002248    0.00000620   -0.00010742
     atom  137 type  1   force =     0.00000000    0.00000000    0.00000000
     atom  138 type  1   force =     0.00000534   -0.00000395   -0.00000167
     atom  139 type  2   force =     0.00000000    0.00000000    0.00000000
     atom  140 type  2   force =     0.00000172   -0.00000123    0.00000085
     atom  141 type  2   force =     0.00000278   -0.00000238   -0.00002780
     atom  142 type  2   force =     0.00000000    0.00000000    0.00000000
     atom  143 type  2   force =     0.00000168   -0.00000131   -0.00000067
     atom  144 type  2   force =     0.00000243   -0.00000184   -0.00002018
     atom  145 type  3   force =    -0.00000577   -0.00000911   -0.00019629

     DFT-D3 dispersion contribution to forces:
     atom    1 type  1   force =    -0.00000001    0.00022114   -0.00211139
     atom    2 type  1   force =     0.00000000    0.00000017    0.00260289
     atom    3 type  1   force =     0.00000096    0.00000089   -0.00004703
     atom    4 type  2   force =     0.00000004   -0.00000001    0.00441124
     atom    5 type  2   force =     0.00000001    0.00000021   -0.00004945
     atom    6 type  2   force =     0.00001421    0.00002487   -0.00013030
     atom    7 type  2   force =     0.00000021    0.00000016    0.00023437
     atom    8 type  2   force =     0.00000000    0.00000042    0.00008198
     atom    9 type  2   force =     0.00024702    0.00042440   -0.00405316
     atom   10 type  1   force =     0.00019157   -0.00011068   -0.00211138
     atom   11 type  1   force =     0.00000019    0.00000011    0.00260314
     atom   12 type  1   force =     0.00000123    0.00000040   -0.00004702
     atom   13 type  2   force =     0.00000001    0.00000001    0.00441115
     atom   14 type  2   force =     0.00000047    0.00000027   -0.00004955
     atom   15 type  2   force =     0.00002862   -0.00000014   -0.00013033
     atom   16 type  2   force =     0.00000048    0.00000029    0.00023434
     atom   17 type  2   force =     0.00000089    0.00000053    0.00008163
     atom   18 type  2   force =     0.00049113    0.00000160   -0.00405317
     atom   19 type  1   force =     0.00007777   -0.00009285   -0.00250099
     atom   20 type  1   force =     0.00000014   -0.00000009    0.00260290
     atom   21 type  1   force =    -0.00000018    0.00000010   -0.00004506
     atom   22 type  2   force =     0.00000001    0.00000004    0.00441124
     atom   23 type  2   force =     0.00000018   -0.00000010   -0.00004944
     atom   24 type  2   force =    -0.00000326    0.00000189   -0.00018801
     atom   25 type  2   force =     0.00000024    0.00000010    0.00023438
     atom   26 type  2   force =     0.00000035   -0.00000021    0.00008197
     atom   27 type  2   force =     0.00009927   -0.00005732   -0.00436132
     atom   28 type  1   force =    -0.00004154    0.00011387   -0.00250087
     atom   29 type  1   force =    -0.00000007   -0.00000004    0.00260284
     atom   30 type  1   force =     0.00000001   -0.00000023   -0.00004506
     atom   31 type  2   force =     0.00000000    0.00000000    0.00441137
     atom   32 type  2   force =    -0.00000035   -0.00000020   -0.00004919
     atom   33 type  2   force =     0.00000001   -0.00000377   -0.00018800
     atom   34 type  2   force =     0.00000000   -0.00000001    0.00023437
     atom   35 type  2   force =    -0.00000155   -0.00000090    0.00007953
     atom   36 type  2   force =     0.00000000    0.00011474   -0.00436126
     atom   37 type  1   force =    -0.00022827    0.00013174   -0.00232358
     atom   38 type  1   force =    -0.00000027    0.00000009    0.00260258
     atom   39 type  1   force =    -0.00000094    0.00000088   -0.00004703
     atom   40 type  2   force =    -0.00000004   -0.00000001    0.00441124
     atom   41 type  2   force =    -0.00000127   -0.00000001   -0.00004965
     atom   42 type  2   force =    -0.00001420    0.00002487   -0.00013031
     atom   43 type  2   force =    -0.00000020    0.00000016    0.00023437
     atom   44 type  2   force =    -0.00000259   -0.00000019    0.00007900
     atom   45 type  2   force =    -0.00024705    0.00042440   -0.00405316
     atom   46 type  1   force =    -0.00019160   -0.00011068   -0.00211138
     atom   47 type  1   force =    -0.00000019    0.00000011    0.00260314
     atom   48 type  1   force =    -0.00000000    0.00000000   -0.00004621
     atom   49 type  2   force =     0.00000000    0.00000006    0.00441105
     atom   50 type  2   force =    -0.00000046    0.00000027   -0.00004956
     atom   51 type  2   force =    -0.00000000   -0.00000003    0.00001297
     atom   52 type  2   force =     0.00000000    0.00000026    0.00023441
     atom   53 type  2   force =    -0.00000089    0.00000052    0.00008163
     atom   54 type  2   force =    -0.00000001   -0.00000001   -0.00427608
     atom   55 type  1   force =    -0.00000001   -0.00026348   -0.00232374
     atom   56 type  1   force =    -0.00000000   -0.00000022    0.00260314
     atom   57 type  1   force =     0.00000027   -0.00000127   -0.00004703
     atom   58 type  2   force =     0.00000005   -0.00000003    0.00441105
     atom   59 type  2   force =    -0.00000000   -0.00000053   -0.00004956
     atom   60 type  2   force =     0.00001443   -0.00002471   -0.00013036
[...]
     atom  131 type  2   force =     0.00000000    0.00000041   -0.00004920
     atom  132 type  2   force =     0.00000327    0.00000188   -0.00018801
     atom  133 type  2   force =    -0.00000024    0.00000010    0.00023437
     atom  134 type  2   force =     0.00000000    0.00000178    0.00007953
     atom  135 type  2   force =    -0.00009924   -0.00005731   -0.00436132
     atom  136 type  1   force =     0.00004154    0.00011389   -0.00250086
     atom  137 type  1   force =     0.00000007   -0.00000004    0.00260284
     atom  138 type  1   force =     0.00000067   -0.00000040   -0.00004663
     atom  139 type  2   force =     0.00000003   -0.00000003    0.00441124
     atom  140 type  2   force =     0.00000036   -0.00000020   -0.00004920
     atom  141 type  2   force =     0.00000458   -0.00000265   -0.00018991
     atom  142 type  2   force =    -0.00000004   -0.00000027    0.00023436
     atom  143 type  2   force =     0.00000155   -0.00000090    0.00007953
     atom  144 type  2   force =     0.00000411   -0.00000229   -0.00438605
     atom  145 type  3   force =     0.00000004    0.00000028   -0.00664090

     Total force =     0.001897     Total SCF correction =     0.000518
     SCF correction compared to forces is large: reduce conv_thr to get better values
     Energy error            =      7.8E-06 Ry
     Gradient error          =      9.4E-04 Ry/Bohr

     bfgs converged in  29 scf cycles and  27 bfgs steps
     (criteria: energy <  1.0E-04 Ry, force <  1.0E-03 Ry/Bohr)

     End of BFGS Geometry Optimization

     Final energy             =  -25622.4489445262 Ry

     File ./outdir/pwscf.bfgs deleted, as requested
Begin final coordinates

ATOMIC_POSITIONS (angstrom)
Mo            1.5768949961        2.7316775758        6.0963492892
Mo            1.5769197498        0.9104407117       -6.0872367793    0   0   0
Mo            0.0000742193        1.8210434878       -0.0005323492
S             0.0000044503        0.0000077495       -7.6506323570    0   0   0
S             1.5769118540        0.9104581613       -1.5659792230
S             0.0019241186        1.8216074907        4.5301430901
S             0.0000053241        0.0000068460       -4.5222282367    0   0   0
S             1.5769121908        0.9105166078        1.5667884939
S            -0.0021270876        1.8157356202        7.6672497867
Mo            0.0003065814        5.4623989116        6.0963512258
Mo            0.0000011799        3.6417399547       -6.0872367793    0   0   0
Mo           -1.5767345100        4.5521489954       -0.0005282107
S            -1.5769141197        2.7313069925       -7.6506323570    0   0   0
S             0.0001111293        3.6418080527       -1.5661833976
S            -1.5753161155        4.5534685772        4.5301451771
S            -1.5769132459        2.7313060890       -4.5222282367    0   0   0
S             0.0001103919        3.6418004852        1.5669573714
S            -1.5824326548        4.5528925866        7.6672500515
Mo           -1.5790217943        8.1955903236        6.0930865796
Mo           -1.5769173901        6.3730391977       -6.0872367793    0   0   0
Mo           -3.1538817390        7.2834891045       -0.0005405818
S            -3.1538326896        5.4626062355       -7.6506323570    0   0   0
S            -1.5769013066        6.3730185270       -1.5659773406
S            -3.1534950077        7.2832438481        4.5261117010
S            -3.1538318159        5.4626053320       -4.5222282367    0   0   0
S            -1.5768474166        6.3729883692        1.5667984476
S            -3.1559563805        7.2846639611        7.6617290000
Mo            3.1542458250       -0.0026569552        6.0930814553
Mo           -3.1538359601        9.1043384407       -6.0872367793    0   0   0
Mo           -4.7307578253       10.0147092640       -0.0005429453
S            -4.7307512596        8.1939054785       -7.6506323570    0   0   0
S            -3.1537273693        9.1043896136       -1.5659852309
S            -4.7307770007       10.0151753752        4.5261127527
S            -4.7307503859        8.1939045750       -4.5222282367    0   0   0
S            -3.1540267801        9.1042235254        1.5668305590
S            -4.7307774856       10.0123343026        7.6617281851
Mo            4.7294283269        2.7320367073        6.0969582452
Mo            4.7307503218        0.9104407117       -6.0872367793    0   0   0
Mo            3.1537457403        1.8210411130       -0.0005336664
S             3.1538350223        0.0000077495       -7.6506323570    0   0   0
S             4.7310442279        0.9105295707       -1.5654796431
S             3.1518629641        1.8216045683        4.5301399825
S             3.1538358961        0.0000068460       -4.5222282367    0   0   0
S             4.7302625518        0.9104499770        1.5672252909
S             3.1559178327        1.8157349525        7.6672475251
Mo            3.1534766099        5.4623983842        6.0963482072
Mo            3.1538317519        3.6417399547       -6.0872367793    0   0   0
Mo            1.5769018472        4.5521655285       -0.0003095654
S             1.5769164523        2.7313069925       -7.6506323570    0   0   0
S             3.1536948382        3.6418073977       -1.5661820796
S             1.5768945281        4.5521610768        4.5239704467
S             1.5769173261        2.7313060890       -4.5222282367    0   0   0
S             3.1537000502        3.6418011602        1.5669513699
S             1.5768928883        4.5521466493        7.6420350811
Mo            1.5768861975        8.1923937569        6.0969587992
Mo            1.5769131819        6.3730391977       -6.0872367793    0   0   0
Mo            0.0000987155        7.2833102997       -0.0005294288
S            -0.0000021176        5.4626062355       -7.6506323570    0   0   0
S             1.5769010576        6.3728879470       -1.5661800120
S            -0.0003563787        7.2813955414        4.5301421174
[...]
S             7.8845676405        6.3728980255       -1.5659784354
S             6.3072746738        7.2832467790        4.5261098469
S             6.3076599001        5.4626053320       -4.5222282367    0   0   0
S             7.8845648469        6.3732445046        1.5668296433
S             6.3097330155        7.2846654830        7.6617253266
Mo           -0.0004544568       -0.0026547781        6.0930835304
Mo            6.3076557559        9.1043384407       -6.0872367793    0   0   0
Mo            4.7307866337       10.0147291938       -0.0001193346
S             4.7307404564        8.1939054785       -7.6506323570    0   0   0
S             6.3075329413        9.1043894942       -1.5659835332
S             4.7303184304       10.0149889051        4.5264775781
S             4.7307413301        8.1939045750       -4.5222282367    0   0   0
S             6.3078299895        9.1042212519        1.5668245951
S             4.7299176152       10.0152173273        7.6633182789
Au            1.5768078669        4.5515734089        9.9702608788
End final coordinates

     Writing all to output data dir ./outdir/pwscf.save/

     General routines

     Parallel routines

   This run was terminated on:   6:20:33   5Nov2023

   JOB DONE.
Application 11372058 resources: utime ~4794233s, stime ~75239s, Rss ~2624020, inblocks ~0, outblocks ~41141368