     Program PWSCF v.7.2 starts on 28Dec2023 at  7:46:22

     Waiting for input...
     Reading input from standard input
Warning: card &CELL ignored
Warning: card / ignored

     Current dimensions of program PWSCF are:
     Max number of different atomic species (ntypx) = 10
     Max number of k-points (npk) =  40000
     Max angular momentum in pseudopotentials (lmaxx) =  4
     file Mo.pbe-spn-kjpaw_psl.1.0.0.UPF: wavefunction(s)  4S 4D renormalized
     file S.pbe-n-kjpaw_psl.1.0.0.UPF: wavefunction(s)  3S 3P renormalized
     file Pt.pbe-spfn-kjpaw_psl.1.0.0.UPF: wavefunction(s)  5P 4F renormalized

     R & G space division:  proc/nbgrp/npool/nimage =      36
     Subspace diagonalization in iterative solution of the eigenvalue problem:
     one sub-group per band group will be used

     Using Slab Decomposition

     bravais-lattice index     =            0
     lattice parameter (alat)  =      23.8199  a.u.
     unit-cell volume          =   33861.0370 (a.u.)^3
     number of atoms/cell      =          194
     number of atomic types    =            3
     number of electrons       =      1728.00
     number of Kohn-Sham states=         1037
     kinetic-energy cutoff     =      77.0000  Ry
     charge density cutoff     =     539.0000  Ry
     scf convergence threshold =      1.0E-06
     mixing beta               =       0.2000
     number of iterations used =            8  plain     mixing
     energy convergence thresh.=      1.0E-04
     force convergence thresh. =      1.0E-03
     Exchange-correlation= SLA  PW   PBX  PBC
                           (   1   4   3   4   0   0   0)
     nstep                     =         1000

     Effective Screening Medium Method
     Boundary Conditions: Vacuum-Slab-Vacuum
     total charge in unit cell        =   0.0000
     grid points for fit at edges     =        4

     celldm(1)=  23.819920  celldm(2)=   0.000000  celldm(3)=   0.000000
     celldm(4)=   0.000000  celldm(5)=   0.000000  celldm(6)=   0.000000

     crystal axes: (cart. coord. in units of alat)
               a(1) = (   1.000000   0.000000   0.000000 )
               a(2) = (  -0.499999   0.866026   0.000000 )
               a(3) = (   0.000000   0.000000   2.893000 )

     reciprocal axes: (cart. coord. in units 2 pi/alat)
               b(1) = (  1.000000  0.577349  0.000000 )
               b(2) = (  0.000000  1.154700  0.000000 )
               b(3) = (  0.000000  0.000000  0.345662 )

     PseudoPot. # 1 for Mo read from file:
     ./pseudo/Mo.pbe-spn-kjpaw_psl.1.0.0.UPF
     MD5 check sum: 317bf72632116215fd98f72de1686f13
     Pseudo is Projector augmented-wave + core cor, Zval = 14.0
     Generated using 'atomic' code by A. Dal Corso  v.7.2
     Shape of augmentation charge: PSQ
     Using radial grid of 1229 points,  6 beta functions with:
                l(1) =   0
                l(2) =   0
                l(3) =   1
                l(4) =   1
                l(5) =   2
                l(6) =   2
     Q(r) pseudized with 0 coefficients

     PseudoPot. # 2 for S  read from file:
     ./pseudo/S.pbe-n-kjpaw_psl.1.0.0.UPF
     MD5 check sum: 8b7b5302570d38d5e87fed6a1065abda
     Pseudo is Projector augmented-wave + core cor, Zval =  6.0
     Generated using 'atomic' code by A. Dal Corso  v.7.2
     Shape of augmentation charge: PSQ
     Using radial grid of 1151 points,  6 beta functions with:
                l(1) =   0
                l(2) =   0
                l(3) =   1
                l(4) =   1
                l(5) =   2
                l(6) =   2
     Q(r) pseudized with 0 coefficients

     PseudoPot. # 3 for Pt read from file:
     ./pseudo/Pt.pbe-spfn-kjpaw_psl.1.0.0.UPF
     MD5 check sum: 620096ebf4e6ebacc94de60fd67efcb5
     Pseudo is Projector augmented-wave + core cor, Zval = 32.0
     Generated using 'atomic' code by A. Dal Corso  v.7.2
     Shape of augmentation charge: PSQ
     Using radial grid of 1277 points,  8 beta functions with:
                l(1) =   0
                l(2) =   0
                l(3) =   1
                l(4) =   1
                l(5) =   2
                l(6) =   2
                l(7) =   3
                l(8) =   3
     Q(r) pseudized with 0 coefficients

     atomic species   valence    mass     pseudopotential
        Mo            14.00    95.95000     Mo( 1.00)
        S              6.00    32.06000     S ( 1.00)
        Pt            32.00   195.08400     Pt( 1.00)

     No symmetry found

   Cartesian axes

     site n.     atom                  positions (alat units)
         1           Mo  tau(   1) = (   0.0000010   0.1443372  -0.7272732  )
         2           Mo  tau(   2) = (   0.1249995   0.0721706  -0.2424038  )
         3           S   tau(   3) = (   0.0000015   0.1443386  -0.3667807  )
         4           S   tau(   4) = (   0.1250010   0.0721682  -0.6030489  )
         5           S   tau(   5) = (   0.1250010   0.0721683  -0.8514963  )
         6           S   tau(   6) = (   0.0000015   0.1443389  -0.1180260  )
         7           Mo  tau(   7) = (   0.0000014   0.1443616   0.2424356  )
         8           Mo  tau(   8) = (   0.1250042   0.0720311   0.7263989  )
         9           S   tau(   9) = (   0.0000639   0.1447004   0.6020022  )
        10           S   tau(  10) = (   0.1250030   0.0721650   0.3667578  )
        11           S   tau(  11) = (   0.1250031   0.0721991   0.1180453  )
        12           S   tau(  12) = (  -0.0005532   0.1426765   0.8513101  )
        13           Mo  tau(  13) = (  -0.1249989   0.3608437  -0.7272732  )
        14           Mo  tau(  14) = (   0.0000030   0.2886752  -0.2424042  )
        15           S   tau(  15) = (  -0.1249977   0.3608450  -0.3667802  )
        16           S   tau(  16) = (   0.0000012   0.2886747  -0.6030489  )
        17           S   tau(  17) = (   0.0000012   0.2886748  -0.8514963  )
        18           S   tau(  18) = (  -0.1249977   0.3608454  -0.1180274  )
        19           Mo  tau(  19) = (  -0.1249758   0.3608563   0.2424461  )
        20           Mo  tau(  20) = (  -0.0009250   0.2875651   0.7279418  )
        21           S   tau(  21) = (  -0.1248723   0.3609173   0.6030853  )
        22           S   tau(  22) = (   0.0000474   0.2887247   0.3668317  )
        23           S   tau(  23) = (   0.0000000   0.2886879   0.1180554  )
        24           S   tau(  24) = (  -0.1255989   0.3604976   0.8519229  )
        25           Mo  tau(  25) = (  -0.2499987   0.5773502  -0.7272732  )
        26           Mo  tau(  26) = (  -0.1249977   0.5051839  -0.2424055  )
        27           S   tau(  27) = (  -0.2499981   0.5773518  -0.3667809  )
        28           S   tau(  28) = (  -0.1249986   0.5051812  -0.6030489  )
        29           S   tau(  29) = (  -0.1249986   0.5051813  -0.8514963  )
        30           S   tau(  30) = (  -0.2499979   0.5773512  -0.1180266  )
        31           Mo  tau(  31) = (  -0.2499765   0.5773372   0.2424355  )
        32           Mo  tau(  32) = (  -0.1264232   0.5049348   0.7279418  )
        33           S   tau(  33) = (  -0.2496528   0.5772237   0.6020023  )
        34           S   tau(  34) = (  -0.1249318   0.5051954   0.3668318  )
        35           S   tau(  35) = (  -0.1249873   0.5051727   0.1180553  )
        36           S   tau(  36) = (  -0.2517142   0.5777014   0.8513102  )
        37           Mo  tau(  37) = (  -0.3749985   0.7938567  -0.7272732  )
        38           Mo  tau(  38) = (  -0.2500001   0.7216874  -0.2424031  )
        39           S   tau(  39) = (  -0.3749980   0.7938584  -0.3667800  )
        40           S   tau(  40) = (  -0.2499984   0.7216877  -0.6030489  )
        41           S   tau(  41) = (  -0.2499984   0.7216878  -0.8514963  )
        42           S   tau(  42) = (  -0.3749982   0.7938585  -0.1180264  )
        43           Mo  tau(  43) = (  -0.3749961   0.7938572   0.2423820  )
        44           Mo  tau(  44) = (  -0.2501160   0.7217599   0.7263989  )
        45           S   tau(  45) = (  -0.3749948   0.7938592   0.6019084  )
        46           S   tau(  46) = (  -0.2499995   0.7216903   0.3667578  )
        47           S   tau(  47) = (  -0.2499699   0.7216732   0.1180452  )
        48           S   tau(  48) = (  -0.3749951   0.7938590   0.8508262  )
        49           Mo  tau(  49) = (   0.2500010   0.1443372  -0.7272732  )
        50           Mo  tau(  50) = (   0.3750034   0.0721723  -0.2424032  )
        51           S   tau(  51) = (   0.2500017   0.1443391  -0.3667788  )
        52           S   tau(  52) = (   0.3750010   0.0721682  -0.6030489  )
        53           S   tau(  53) = (   0.3750010   0.0721683  -0.8514963  )
        54           S   tau(  54) = (   0.2500016   0.1443391  -0.1180271  )
        55           Mo  tau(  55) = (   0.2500050   0.1443618   0.2424356  )
        56           Mo  tau(  56) = (   0.3749291   0.0721273   0.7261578  )
        57           S   tau(  57) = (   0.2499446   0.1447002   0.6020022  )
        58           S   tau(  58) = (   0.3750312   0.0721852   0.3667808  )
        59           S   tau(  59) = (   0.3749943   0.0721639   0.1180502  )
        60           S   tau(  60) = (   0.2505615   0.1426764   0.8513103  )
[...]
       180           S   tau( 180) = (   0.5017240   0.5777016   0.8513099  )
       181           Mo  tau( 181) = (   0.3750016   0.7938567  -0.7272732  )
       182           Mo  tau( 182) = (   0.5000025   0.7216901  -0.2424039  )
       183           S   tau( 183) = (   0.3750019   0.7938578  -0.3667793  )
       184           S   tau( 184) = (   0.5000016   0.7216877  -0.6030489  )
       185           S   tau( 185) = (   0.5000016   0.7216878  -0.8514963  )
       186           S   tau( 186) = (   0.3750020   0.7938579  -0.1180272  )
       187           Mo  tau( 187) = (   0.3749825   0.7938468   0.2424356  )
       188           Mo  tau( 188) = (   0.5001261   0.7217601   0.7263985  )
       189           S   tau( 189) = (   0.3747228   0.7936274   0.6020018  )
       190           S   tau( 190) = (   0.5000073   0.7216903   0.3667579  )
       191           S   tau( 191) = (   0.4999777   0.7216732   0.1180450  )
       192           S   tau( 192) = (   0.3761670   0.7951734   0.8513099  )
       193           Pt  tau( 193) = (   0.1250041   0.5051825   0.9498857  )
       194           Pt  tau( 194) = (   0.3793216   0.5072342   0.9727653  )

     DFT-D3 Dispersion Correction (3-body terms):
       Reference C6 values for interpolation:

         atom   Coordination number   C6
         S          0.000           268.01
         S          0.995           261.99
         S          1.990           251.62
         Mo         0.000          1691.79
         Mo         1.942          1004.01
         Mo        11.056           674.22
         Pt         0.000           782.29
         Pt         1.919           692.72
         Pt         6.667           673.75

       Values used:

         atom   Coordination number  R0_AB[au]  C6      C8
         Mo        10.208            3.547    674.22  77634.20
         Mo        10.221            3.547    674.22  77634.20
         S          3.858            3.128    251.62  12327.25
[...]
     atom   15 type  2   force =     0.00000000    0.00000000    0.00000000
     atom   16 type  2   force =     0.00000000    0.00000000    0.00000000
     atom   17 type  2   force =     0.00000000    0.00000000    0.00000000
     atom   18 type  2   force =     0.00000000    0.00000000    0.00000000
     atom   19 type  1   force =     0.00000017   -0.00000251    0.00001116
     atom   20 type  1   force =    -0.00001830    0.00002516    0.00000882
     atom   21 type  2   force =    -0.00000572    0.00000316    0.00000019
     atom   22 type  2   force =    -0.00000594   -0.00000349   -0.00000156
     atom   23 type  2   force =     0.00000121    0.00000229    0.00000243
     atom   24 type  2   force =     0.00000801   -0.00000424   -0.00001349
     atom   25 type  1   force =     0.00000000    0.00000000    0.00000000
     atom   26 type  1   force =     0.00000000    0.00000000    0.00000000
     atom   27 type  2   force =     0.00000000    0.00000000    0.00000000
     atom   28 type  2   force =     0.00000000    0.00000000    0.00000000
     atom   29 type  2   force =     0.00000000    0.00000000    0.00000000
     atom   30 type  2   force =     0.00000000    0.00000000    0.00000000
     atom   31 type  1   force =     0.00000632    0.00000200    0.00000734
     atom   32 type  1   force =     0.00000131    0.00001641   -0.00006168
     atom   33 type  2   force =     0.00002602    0.00000952    0.00000391
     atom   34 type  2   force =    -0.00000084    0.00000295    0.00000565
     atom   35 type  2   force =    -0.00000407    0.00000075    0.00000212
     atom   36 type  2   force =    -0.00000523    0.00000532   -0.00000921
     atom   37 type  1   force =     0.00000000    0.00000000    0.00000000
     atom   38 type  1   force =     0.00000000    0.00000000    0.00000000
     atom   39 type  2   force =     0.00000000    0.00000000    0.00000000
     atom   40 type  2   force =     0.00000000    0.00000000    0.00000000
     atom   41 type  2   force =     0.00000000    0.00000000    0.00000000
     atom   42 type  2   force =     0.00000000    0.00000000    0.00000000
     atom   43 type  1   force =     0.00000024    0.00000714    0.00000597
     atom   44 type  1   force =     0.00002408    0.00000376   -0.00001809
     atom   45 type  2   force =     0.00001161    0.00001501    0.00000429
     atom   46 type  2   force =     0.00001073    0.00000166    0.00001018
     atom   47 type  2   force =    -0.00000155   -0.00000053    0.00000238
     atom   48 type  2   force =     0.00000437    0.00000086   -0.00000710
     atom   49 type  1   force =     0.00000000    0.00000000    0.00000000
     atom   50 type  1   force =     0.00000000    0.00000000    0.00000000
     atom   51 type  2   force =     0.00000000    0.00000000    0.00000000
     atom   52 type  2   force =     0.00000000    0.00000000    0.00000000
     atom   53 type  2   force =     0.00000000    0.00000000    0.00000000
     atom   54 type  2   force =     0.00000000    0.00000000    0.00000000
     atom   55 type  1   force =    -0.00000169   -0.00000485    0.00000689
     atom   56 type  1   force =     0.00000319   -0.00003111    0.00002991
     atom   57 type  2   force =    -0.00001013   -0.00001670    0.00000181
     atom   58 type  2   force =    -0.00000126   -0.00001138    0.00000223
     atom   59 type  2   force =     0.00000160   -0.00000038    0.00000064
     atom   60 type  2   force =     0.00001249   -0.00002018   -0.00000906
[...]
     atom  180 type  2   force =     0.00000225   -0.00000160    0.00001539
     atom  181 type  1   force =     0.00000000    0.00000000    0.00000000
     atom  182 type  1   force =     0.00000000    0.00000000    0.00000000
     atom  183 type  2   force =     0.00000000    0.00000000    0.00000000
     atom  184 type  2   force =     0.00000000    0.00000000    0.00000000
     atom  185 type  2   force =     0.00000000    0.00000000    0.00000000
     atom  186 type  2   force =     0.00000000    0.00000000    0.00000000
     atom  187 type  1   force =     0.00000267    0.00000166    0.00000842
     atom  188 type  1   force =    -0.00002490    0.00002367    0.00001445
     atom  189 type  2   force =     0.00000277    0.00000504    0.00000720
     atom  190 type  2   force =     0.00000303    0.00000125   -0.00000279
     atom  191 type  2   force =     0.00000043    0.00000228   -0.00000022
     atom  192 type  2   force =    -0.00000005    0.00000233   -0.00000783
     atom  193 type  3   force =     0.00043272    0.00038927    0.00038199
     atom  194 type  3   force =    -0.00037452    0.00009725   -0.00050729

     DFT-D3 dispersion contribution to forces:
     atom    1 type  1   force =    -0.00000001    0.00000004    0.00255975
     atom    2 type  1   force =    -0.00000006   -0.00000000    0.00001388
     atom    3 type  2   force =     0.00000002   -0.00000002   -0.00003335
     atom    4 type  2   force =    -0.00000001   -0.00000001    0.00017169
     atom    5 type  2   force =    -0.00000000   -0.00000003    0.00441460
     atom    6 type  2   force =    -0.00000000    0.00000003    0.00009750
     atom    7 type  1   force =    -0.00000950   -0.00000985    0.00000464
     atom    8 type  1   force =     0.00001733    0.00011295   -0.00234802
     atom    9 type  2   force =    -0.00001232   -0.00000498   -0.00009866
     atom   10 type  2   force =    -0.00001044   -0.00001891    0.00004458
     atom   11 type  2   force =    -0.00000005   -0.00000075   -0.00009509
     atom   12 type  2   force =     0.00013601    0.00027584   -0.00429286
     atom   13 type  1   force =     0.00000002    0.00000001    0.00255979
     atom   14 type  1   force =    -0.00000002    0.00000004    0.00001389
     atom   15 type  2   force =    -0.00000001    0.00000001   -0.00003329
     atom   16 type  2   force =     0.00000001    0.00000000    0.00017168
     atom   17 type  2   force =     0.00000000    0.00000003    0.00441450
     atom   18 type  2   force =    -0.00000000    0.00000009    0.00009756
     atom   19 type  1   force =    -0.00001096   -0.00001279   -0.00001401
     atom   20 type  1   force =     0.00028055    0.00034008   -0.00205748
     atom   21 type  2   force =     0.00002683   -0.00001206   -0.00006272
     atom   22 type  2   force =    -0.00001599   -0.00002612    0.00004244
     atom   23 type  2   force =    -0.00000033   -0.00000072   -0.00009811
     atom   24 type  2   force =     0.00048965    0.00030450   -0.00418207
     atom   25 type  1   force =     0.00000000   -0.00000004    0.00255970
     atom   26 type  1   force =     0.00000001    0.00000000    0.00001412
     atom   27 type  2   force =     0.00000003    0.00000002   -0.00003335
     atom   28 type  2   force =     0.00000001   -0.00000001    0.00017173
     atom   29 type  2   force =    -0.00000001   -0.00000002    0.00441453
     atom   30 type  2   force =     0.00000008   -0.00000013    0.00009768
     atom   31 type  1   force =    -0.00000076   -0.00000087   -0.00001788
     atom   32 type  1   force =     0.00036041   -0.00000342   -0.00209188
     atom   33 type  2   force =    -0.00000305    0.00001436   -0.00007785
     atom   34 type  2   force =    -0.00001597    0.00000339    0.00003725
     atom   35 type  2   force =    -0.00000020    0.00000056   -0.00009921
     atom   36 type  2   force =    -0.00000006   -0.00010996   -0.00424093
     atom   37 type  1   force =    -0.00000003   -0.00000003    0.00255975
     atom   38 type  1   force =     0.00000004   -0.00000004    0.00001406
     atom   39 type  2   force =     0.00000002    0.00000002   -0.00003332
     atom   40 type  2   force =    -0.00000000    0.00000001    0.00017167
     atom   41 type  2   force =     0.00000000    0.00000003    0.00441461
     atom   42 type  2   force =    -0.00000000   -0.00000002    0.00009762
     atom   43 type  1   force =    -0.00000272    0.00000997   -0.00000036
     atom   44 type  1   force =    -0.00000057   -0.00009576   -0.00235552
     atom   45 type  2   force =    -0.00000034    0.00001317   -0.00010320
     atom   46 type  2   force =    -0.00000089    0.00001772    0.00003750
     atom   47 type  2   force =     0.00000009    0.00000057   -0.00009715
     atom   48 type  2   force =    -0.00019247   -0.00021713   -0.00431708
     atom   49 type  1   force =    -0.00000000    0.00000008    0.00255972
     atom   50 type  1   force =     0.00000005   -0.00000006    0.00001389
     atom   51 type  2   force =    -0.00000002   -0.00000005   -0.00003338
     atom   52 type  2   force =     0.00000001   -0.00000001    0.00017170
     atom   53 type  2   force =    -0.00000000   -0.00000003    0.00441460
     atom   54 type  2   force =    -0.00000006   -0.00000003    0.00009752
     atom   55 type  1   force =     0.00000003   -0.00001314   -0.00000969
     atom   56 type  1   force =    -0.00001756    0.00011379   -0.00234921
     atom   57 type  2   force =    -0.00000033    0.00000746   -0.00005195
     atom   58 type  2   force =     0.00000983   -0.00001812    0.00004525
     atom   59 type  2   force =    -0.00000005   -0.00000091   -0.00009519
     atom   60 type  2   force =     0.00000044    0.00062416   -0.00419105
[...]
     atom  180 type  2   force =    -0.00048221   -0.00015055   -0.00432865
     atom  181 type  1   force =    -0.00000002   -0.00000006    0.00255978
     atom  182 type  1   force =    -0.00000002    0.00000004    0.00001390
     atom  183 type  2   force =    -0.00000001    0.00000000   -0.00003335
     atom  184 type  2   force =     0.00000000    0.00000001    0.00017172
     atom  185 type  2   force =     0.00000001    0.00000003    0.00441454
     atom  186 type  2   force =    -0.00000005   -0.00000002    0.00009740
     atom  187 type  1   force =     0.00000107    0.00002152   -0.00000681
     atom  188 type  1   force =    -0.00028212   -0.00034012   -0.00206103
     atom  189 type  2   force =    -0.00004854   -0.00006102    0.00000713
     atom  190 type  2   force =     0.00001695    0.00002398    0.00003269
     atom  191 type  2   force =     0.00000064    0.00000077   -0.00009802
     atom  192 type  2   force =    -0.00020515   -0.00079625   -0.00406522
     atom  193 type  3   force =     0.00009993   -0.00000127   -0.00668715
     atom  194 type  3   force =    -0.00010174   -0.00000116   -0.00668665

     Total force =     0.001878     Total SCF correction =     0.000967
     SCF correction compared to forces is large: reduce conv_thr to get better values
     Energy error            =      3.9E-06 Ry
     Gradient error          =      7.6E-04 Ry/Bohr

     bfgs converged in  21 scf cycles and  20 bfgs steps
     (criteria: energy <  1.0E-04 Ry, force <  1.0E-03 Ry/Bohr)

     End of BFGS Geometry Optimization

     Final energy             =  -35142.9798371678 Ry

     File ./outdir/pwscf.bfgs deleted, as requested
Begin final coordinates

ATOMIC_POSITIONS (angstrom)
Mo            0.0000119917        1.8193638619       -9.1672481230    0   0   0
Mo            1.5756136568        0.9097075315       -3.0554901653    0   0   0
S             0.0000188998        1.8193822938       -4.6232556019    0   0   0
S             1.5756321638        0.9096773839       -7.6014065489    0   0   0
S             1.5756326175        0.9096785128      -10.7330757790    0   0   0
S             0.0000189190        1.8193860094       -1.4877129945    0   0   0
Mo            0.0002073650        1.8197009548        3.0560197889
Mo            1.5759164750        0.9040860256        9.1554935389
S             0.0067679425        1.8256850092        7.5821578318
S             1.5755617794        0.9095963161        4.6236694761
S             1.5758655927        0.9097994506        1.4884224434
S            -0.0041219113        1.8038010509       10.7294399221
Mo           -1.5756053507        4.5484193819       -9.1672481230    0   0   0
Mo            0.0000378379        3.6387394919       -3.0554952701    0   0   0
S            -1.5755913433        4.5484363582       -4.6232494962    0   0   0
S             0.0000148214        3.6387329039       -7.6014065489    0   0   0
S             0.0000152751        3.6387340328      -10.7330757790    0   0   0
S            -1.5755906502        4.5484413613       -1.4877305502    0   0   0
Mo           -1.5754155591        4.5486388843        3.0561530683
Mo           -0.0127456560        3.6245550945        9.1701606939
S            -1.5751019305        4.5563434074        7.5994178762
S             0.0002884632        3.6392578084        4.6240817887
S             0.0004020099        3.6391005655        1.4884559037
S            -1.5808868741        4.5395901812       10.7391414078
Mo           -3.1512226931        7.2774749019       -9.1672481230    0   0   0
Mo           -1.5755910988        6.3678216792       -3.0555115988    0   0   0
S            -3.1512162438        7.2774954350       -4.6232578178    0   0   0
S            -1.5756025210        6.3677884239       -7.6014065489    0   0   0
S            -1.5756020673        6.3677895528      -10.7330757790    0   0   0
S            -3.1512127704        7.2774877076       -1.4877200710    0   0   0
Mo           -3.1511033235        7.2773753179        3.0563561109
Mo           -1.5839471812        6.3680609995        9.1841670966
S            -3.1490036384        7.2710116323        7.6031376059
S            -1.5750157897        6.3678521497        4.6241528020
S            -1.5755879899        6.3677721890        1.4882953393
S            -3.1509455611        7.2837239831       10.7506939187
Mo           -4.7268400355       10.0065304219       -9.1672481230    0   0   0
Mo           -3.1512405618        9.0968403586       -3.0554816746    0   0   0
S            -4.7268341792       10.0065523623       -4.6232463762    0   0   0
S            -3.1512198634        9.0968439439       -7.6014065489    0   0   0
S            -3.1512194097        9.0968450728      -10.7330757790    0   0   0
S            -4.7268370797       10.0065537885       -1.4877176751    0   0   0
Mo           -4.7267567404       10.0063792981        3.0560141722
Mo           -3.1504044768        9.0940808619        9.1679038876
S            -4.7257488877        9.9969890319        7.5932491728
S            -3.1510320458        9.0967385360        4.6236900717
S            -3.1512170041        9.0966429467        1.4882547930
S            -4.7212889143       10.0149414596       10.7350940180
Mo            3.1512517547        1.8193638619       -9.1672481230    0   0   0
Mo            4.7269020221        0.9097289540       -3.0554823951    0   0   0
S             3.1512612351        1.8193882564       -4.6232320683    0   0   0
S             4.7268719268        0.9096773839       -7.6014065489    0   0   0
S             4.7268723805        0.9096785128      -10.7330757790    0   0   0
S             3.1512592485        1.8193890201       -1.4877261251    0   0   0
Mo            3.1513011321        1.8195992531        3.0564499307
Mo            4.7277359665        0.9040281850        9.1565726022
S             3.1521270978        1.8155698920        7.5875231648
S             4.7269843876        0.9094262117        4.6236330632
S             4.7267937874        0.9098906234        1.4884237217
S             3.1514047289        1.7813470784       10.7345532821
[...]
S             6.3899481276        7.3209031820       10.8226639849
Mo            4.7268792535       10.0065304219       -9.1672481230    0   0   0
Mo            6.3025111524        9.0968738021       -3.0554915260    0   0   0
S             4.7268840634       10.0065452125       -4.6232380477    0   0   0
S             6.3024994256        9.0968439439       -7.6014065489    0   0   0
S             6.3024998793        9.0968450728      -10.7330757790    0   0   0
S             4.7268847312       10.0065459141       -1.4877283294    0   0   0
Mo            4.7269788532       10.0064903656        3.0563645276
Mo            6.3080156864        9.1035033995        9.1731186300
S             4.7474560182       10.0194220799        7.5737632997
S             6.3027052483        9.0960700991        4.6235465345
S             6.3024348677        9.0967588436        1.4883337319
S             4.7335344754       10.0379641072       10.7206839426
Pt            1.7282269388        6.3432951311       12.0673530093
Pt            4.5828125596        6.3447852727       12.0646588169
End final coordinates

     Writing all to output data dir ./outdir/pwscf.save/

     General routines

     Parallel routines

   This run was terminated on:  14:48:46  30Dec2023

   JOB DONE.
Application 11560691 resources: utime ~7040375s, stime ~92329s, Rss ~3577472, inblocks ~0, outblocks ~59221816