     Program PWSCF v.7.2 starts on  4Aug2023 at  8:35:45

     Waiting for input...
     Reading input from standard input
Warning: card &CELL ignored
Warning: card / ignored

     Current dimensions of program PWSCF are:
     Max number of different atomic species (ntypx) = 10
     Max number of k-points (npk) =  40000
     Max angular momentum in pseudopotentials (lmaxx) =  4
     file Mo.pbe-spn-kjpaw_psl.1.0.0.UPF: wavefunction(s)  4S 4D renormalized
     file S.pbe-n-kjpaw_psl.1.0.0.UPF: wavefunction(s)  3S 3P renormalized
     Found identity + ( -0.0000  0.2500  0.0000) symmetry
     This is a supercell, fractional translations are disabled

     R & G space division:  proc/nbgrp/npool/nimage =      48
     Subspace diagonalization in iterative solution of the eigenvalue problem:
     one sub-group per band group will be used

     Using Slab Decomposition

     bravais-lattice index     =            0
     lattice parameter (alat)  =      23.8395  a.u.
     unit-cell volume          =   28182.8547 (a.u.)^3
     number of atoms/cell      =          144
     number of atomic types    =            2
     number of electrons       =      1248.00
     number of Kohn-Sham states=          749
     kinetic-energy cutoff     =      77.0000  Ry
     charge density cutoff     =     539.0000  Ry
     scf convergence threshold =      1.0E-06
     mixing beta               =       0.2000
     number of iterations used =            8  plain     mixing
     energy convergence thresh.=      1.0E-04
     force convergence thresh. =      1.0E-03
     Exchange-correlation= SLA  PW   PBX  PBC
                           (   1   4   3   4   0   0   0)
     nstep                     =         1000

     Effective Screening Medium Method
     Boundary Conditions: Vacuum-Slab-Vacuum
     total charge in unit cell        =   0.0000
     grid points for fit at edges     =        4

     celldm(1)=  23.839504  celldm(2)=   0.000000  celldm(3)=   0.000000
     celldm(4)=   0.000000  celldm(5)=   0.000000  celldm(6)=   0.000000

     crystal axes: (cart. coord. in units of alat)
               a(1) = (   1.000000   0.000000   0.000000 )
               a(2) = (  -0.500001   0.866026   0.000000 )
               a(3) = (   0.000000   0.000000   2.401941 )

     reciprocal axes: (cart. coord. in units 2 pi/alat)
               b(1) = (  1.000000  0.577351  0.000000 )
               b(2) = (  0.000000  1.154700  0.000000 )
               b(3) = (  0.000000  0.000000  0.416330 )

     PseudoPot. # 1 for Mo read from file:
     ./pseudo/Mo.pbe-spn-kjpaw_psl.1.0.0.UPF
     MD5 check sum: 317bf72632116215fd98f72de1686f13
     Pseudo is Projector augmented-wave + core cor, Zval = 14.0
     Generated using 'atomic' code by A. Dal Corso  v.7.2
     Shape of augmentation charge: PSQ
     Using radial grid of 1229 points,  6 beta functions with:
                l(1) =   0
                l(2) =   0
                l(3) =   1
                l(4) =   1
                l(5) =   2
                l(6) =   2
     Q(r) pseudized with 0 coefficients

     PseudoPot. # 2 for S  read from file:
     ./pseudo/S.pbe-n-kjpaw_psl.1.0.0.UPF
     MD5 check sum: 8b7b5302570d38d5e87fed6a1065abda
     Pseudo is Projector augmented-wave + core cor, Zval =  6.0
     Generated using 'atomic' code by A. Dal Corso  v.7.2
     Shape of augmentation charge: PSQ
     Using radial grid of 1151 points,  6 beta functions with:
                l(1) =   0
                l(2) =   0
                l(3) =   1
                l(4) =   1
                l(5) =   2
                l(6) =   2
     Q(r) pseudized with 0 coefficients

     atomic species   valence    mass     pseudopotential
        Mo            14.00    95.95000     Mo( 1.00)
        S              6.00    32.06000     S ( 1.00)

     No symmetry found

   Cartesian axes

     site n.     atom                  positions (alat units)
         1           Mo  tau(   1) = (   0.1249983   0.2165051   0.4823990  )
         2           Mo  tau(   2) = (   0.1250004   0.0721694  -0.4825273  )
         3           Mo  tau(   3) = (  -0.0000017   0.1443377  -0.0000753  )
         4           S   tau(   4) = (   0.0000004   0.0000006  -0.6064556  )
         5           S   tau(   5) = (   0.1249983   0.0721687  -0.1240045  )
         6           S   tau(   6) = (  -0.0000017   0.1443363   0.3584705  )
         7           S   tau(   7) = (   0.0000004   0.0000005  -0.3584711  )
         8           S   tau(   8) = (   0.1249983   0.0721689   0.1239817  )
         9           S   tau(   9) = (  -0.0000017   0.1443362   0.6064556  )
        10           Mo  tau(  10) = (  -0.0000020   0.4330116   0.4823990  )
        11           Mo  tau(  11) = (   0.0000001   0.2886759  -0.4825273  )
        12           Mo  tau(  12) = (  -0.1250020   0.3608442  -0.0000753  )
        13           S   tau(  13) = (  -0.1249999   0.2165071  -0.6064556  )
        14           S   tau(  14) = (  -0.0000019   0.2886752  -0.1240045  )
        15           S   tau(  15) = (  -0.1250019   0.3608428   0.3584705  )
        16           S   tau(  16) = (  -0.1249998   0.2165070  -0.3584711  )
        17           S   tau(  17) = (  -0.0000020   0.2886754   0.1239817  )
        18           S   tau(  18) = (  -0.1250020   0.3608427   0.6064556  )
        19           Mo  tau(  19) = (  -0.1250022   0.6495181   0.4823990  )
        20           Mo  tau(  20) = (  -0.1250002   0.5051824  -0.4825273  )
        21           Mo  tau(  21) = (  -0.2500022   0.5773507  -0.0000753  )
        22           S   tau(  22) = (  -0.2500002   0.4330136  -0.6064556  )
        23           S   tau(  23) = (  -0.1250022   0.5051817  -0.1240045  )
        24           S   tau(  24) = (  -0.2500022   0.5773493   0.3584705  )
        25           S   tau(  25) = (  -0.2500001   0.4330135  -0.3584711  )
        26           S   tau(  26) = (  -0.1250022   0.5051818   0.1239817  )
        27           S   tau(  27) = (  -0.2500022   0.5773492   0.6064556  )
        28           Mo  tau(  28) = (   0.2499985  -0.0000014   0.4823990  )
        29           Mo  tau(  29) = (  -0.2500004   0.7216889  -0.4825273  )
        30           Mo  tau(  30) = (  -0.3750025   0.7938572  -0.0000753  )
        31           S   tau(  31) = (  -0.3750004   0.6495201  -0.6064556  )
        32           S   tau(  32) = (  -0.2500024   0.7216882  -0.1240045  )
        33           S   tau(  33) = (  -0.3750025   0.7938558   0.3584705  )
        34           S   tau(  34) = (  -0.3750004   0.6495200  -0.3584711  )
        35           S   tau(  35) = (  -0.2500025   0.7216883   0.1239817  )
        36           S   tau(  36) = (  -0.3750025   0.7938557   0.6064556  )
        37           Mo  tau(  37) = (   0.3749983   0.2165051   0.4823990  )
        38           Mo  tau(  38) = (   0.3750004   0.0721694  -0.4825273  )
        39           Mo  tau(  39) = (   0.2499983   0.1443377  -0.0000753  )
        40           S   tau(  40) = (   0.2500004   0.0000006  -0.6064556  )
        41           S   tau(  41) = (   0.3749983   0.0721687  -0.1240045  )
        42           S   tau(  42) = (   0.2499983   0.1443363   0.3584705  )
        43           S   tau(  43) = (   0.2500004   0.0000005  -0.3584711  )
        44           S   tau(  44) = (   0.3749983   0.0721689   0.1239817  )
        45           S   tau(  45) = (   0.2499983   0.1443362   0.6064556  )
        46           Mo  tau(  46) = (   0.2499980   0.4330116   0.4823990  )
        47           Mo  tau(  47) = (   0.2500001   0.2886759  -0.4825273  )
        48           Mo  tau(  48) = (   0.1249980   0.3608442  -0.0000753  )
        49           S   tau(  49) = (   0.1250001   0.2165071  -0.6064556  )
        50           S   tau(  50) = (   0.2499981   0.2886752  -0.1240045  )
        51           S   tau(  51) = (   0.1249981   0.3608428   0.3584705  )
        52           S   tau(  52) = (   0.1250002   0.2165070  -0.3584711  )
        53           S   tau(  53) = (   0.2499980   0.2886754   0.1239817  )
        54           S   tau(  54) = (   0.1249980   0.3608427   0.6064556  )
        55           Mo  tau(  55) = (   0.1249978   0.6495181   0.4823990  )
        56           Mo  tau(  56) = (   0.1249998   0.5051824  -0.4825273  )
        57           Mo  tau(  57) = (  -0.0000022   0.5773507  -0.0000753  )
        58           S   tau(  58) = (  -0.0000002   0.4330136  -0.6064556  )
        59           S   tau(  59) = (   0.1249978   0.5051817  -0.1240045  )
        60           S   tau(  60) = (  -0.0000022   0.5773493   0.3584705  )
[...]
       130           S   tau( 130) = (   0.4999998   0.4330136  -0.6064556  )
       131           S   tau( 131) = (   0.6249978   0.5051817  -0.1240045  )
       132           S   tau( 132) = (   0.4999978   0.5773493   0.3584705  )
       133           S   tau( 133) = (   0.4999999   0.4330135  -0.3584711  )
       134           S   tau( 134) = (   0.6249978   0.5051818   0.1239817  )
       135           S   tau( 135) = (   0.4999978   0.5773492   0.6064556  )
       136           Mo  tau( 136) = (  -0.0000015  -0.0000014   0.4823990  )
       137           Mo  tau( 137) = (   0.4999996   0.7216889  -0.4825273  )
       138           Mo  tau( 138) = (   0.3749975   0.7938572  -0.0000753  )
       139           S   tau( 139) = (   0.3749996   0.6495201  -0.6064556  )
       140           S   tau( 140) = (   0.4999976   0.7216882  -0.1240045  )
       141           S   tau( 141) = (   0.3749975   0.7938558   0.3584705  )
       142           S   tau( 142) = (   0.3749996   0.6495200  -0.3584711  )
       143           S   tau( 143) = (   0.4999975   0.7216883   0.1239817  )
       144           S   tau( 144) = (   0.3749975   0.7938557   0.6064556  )

     DFT-D3 Dispersion Correction (3-body terms):
       Reference C6 values for interpolation:

         atom   Coordination number   C6
         S          0.000           268.01
         S          0.995           261.99
         S          1.990           251.62
         Mo         0.000          1691.79
         Mo         1.942          1004.01
         Mo        11.056           674.22

       Values used:

         atom   Coordination number  R0_AB[au]  C6      C8
         Mo        10.188            3.547    674.22  77634.20
         Mo        10.189            3.547    674.22  77634.20
         Mo        10.202            3.547    674.22  77634.20
         S          3.753            3.128    251.62  12327.25
         S          3.860            3.128    251.62  12327.25
         S          3.859            3.128    251.62  12327.25
         S          3.858            3.128    251.62  12327.25
         S          3.859            3.128    251.62  12327.25
         S          3.753            3.128    251.62  12327.25
         Mo        10.188            3.547    674.22  77634.20
         Mo        10.189            3.547    674.22  77634.20
         Mo        10.202            3.547    674.22  77634.20
         S          3.753            3.128    251.62  12327.25
         S          3.860            3.128    251.62  12327.25
         S          3.859            3.128    251.62  12327.25
[...]
     atom   12 type  1   force =     0.00000161   -0.00000023    0.00002067
     atom   13 type  2   force =     0.00000000    0.00000000    0.00000000
     atom   14 type  2   force =    -0.00000018    0.00000001    0.00001740
     atom   15 type  2   force =    -0.00000022   -0.00000001    0.00000836
     atom   16 type  2   force =     0.00000000    0.00000000    0.00000000
     atom   17 type  2   force =    -0.00000038    0.00000034   -0.00002859
     atom   18 type  2   force =     0.00000028   -0.00000012   -0.00001209
     atom   19 type  1   force =     0.00000062    0.00000017    0.00000294
     atom   20 type  1   force =     0.00000000    0.00000000    0.00000000
     atom   21 type  1   force =     0.00000284   -0.00000283    0.00002096
     atom   22 type  2   force =     0.00000000    0.00000000    0.00000000
     atom   23 type  2   force =    -0.00000005   -0.00000010    0.00001747
     atom   24 type  2   force =     0.00000010   -0.00000018    0.00000803
     atom   25 type  2   force =     0.00000000    0.00000000    0.00000000
     atom   26 type  2   force =    -0.00000050   -0.00000000   -0.00002852
     atom   27 type  2   force =     0.00000006   -0.00000017   -0.00001216
     atom   28 type  1   force =    -0.00000098    0.00000173    0.00000381
     atom   29 type  1   force =     0.00000000    0.00000000    0.00000000
     atom   30 type  1   force =    -0.00000213    0.00000627    0.00001958
     atom   31 type  2   force =     0.00000000    0.00000000    0.00000000
     atom   32 type  2   force =     0.00000003    0.00000006    0.00001688
     atom   33 type  2   force =     0.00000032   -0.00000005    0.00000873
     atom   34 type  2   force =     0.00000000    0.00000000    0.00000000
     atom   35 type  2   force =     0.00000071    0.00000018   -0.00002754
     atom   36 type  2   force =    -0.00000012    0.00000007   -0.00001232
     atom   37 type  1   force =    -0.00000169    0.00000107    0.00000266
     atom   38 type  1   force =     0.00000000    0.00000000    0.00000000
     atom   39 type  1   force =    -0.00000141    0.00000155    0.00001962
     atom   40 type  2   force =     0.00000000    0.00000000    0.00000000
     atom   41 type  2   force =     0.00000010    0.00000017    0.00001756
     atom   42 type  2   force =     0.00000011    0.00000014    0.00000905
     atom   43 type  2   force =     0.00000000    0.00000000    0.00000000
     atom   44 type  2   force =    -0.00000044   -0.00000027   -0.00002894
     atom   45 type  2   force =    -0.00000016    0.00000036   -0.00001249
     atom   46 type  1   force =     0.00000007   -0.00000150    0.00000374
     atom   47 type  1   force =     0.00000000    0.00000000    0.00000000
     atom   48 type  1   force =     0.00000251    0.00000319    0.00001996
     atom   49 type  2   force =     0.00000000    0.00000000    0.00000000
     atom   50 type  2   force =     0.00000027    0.00000024    0.00001794
     atom   51 type  2   force =     0.00000012   -0.00000016    0.00000890
     atom   52 type  2   force =     0.00000000    0.00000000    0.00000000
     atom   53 type  2   force =     0.00000009    0.00000060   -0.00002913
     atom   54 type  2   force =    -0.00000015   -0.00000018   -0.00001224
     atom   55 type  1   force =     0.00000022   -0.00000001    0.00000495
     atom   56 type  1   force =     0.00000000    0.00000000    0.00000000
     atom   57 type  1   force =     0.00000246   -0.00000238    0.00002011
     atom   58 type  2   force =     0.00000000    0.00000000    0.00000000
     atom   59 type  2   force =     0.00000003   -0.00000019    0.00001796
     atom   60 type  2   force =    -0.00000029   -0.00000006    0.00000867
[...]
     atom  130 type  2   force =     0.00000000    0.00000000    0.00000000
     atom  131 type  2   force =    -0.00000004   -0.00000047    0.00001691
     atom  132 type  2   force =     0.00000016   -0.00000034    0.00000822
     atom  133 type  2   force =     0.00000000    0.00000000    0.00000000
     atom  134 type  2   force =     0.00000049   -0.00000110   -0.00002772
     atom  135 type  2   force =    -0.00000010   -0.00000005   -0.00001202
     atom  136 type  1   force =     0.00000124    0.00000087    0.00000375
     atom  137 type  1   force =     0.00000000    0.00000000    0.00000000
     atom  138 type  1   force =    -0.00000071    0.00000497    0.00001984
     atom  139 type  2   force =     0.00000000    0.00000000    0.00000000
     atom  140 type  2   force =     0.00000033    0.00000000    0.00001717
     atom  141 type  2   force =     0.00000008   -0.00000007    0.00000893
     atom  142 type  2   force =     0.00000000    0.00000000    0.00000000
     atom  143 type  2   force =     0.00000001    0.00000033   -0.00002833
     atom  144 type  2   force =    -0.00000019   -0.00000001   -0.00001219

     DFT-D3 dispersion contribution to forces:
     atom    1 type  1   force =    -0.00000000    0.00000000   -0.00263904
     atom    2 type  1   force =    -0.00000000    0.00000000    0.00260429
     atom    3 type  1   force =    -0.00000000    0.00000001   -0.00003332
     atom    4 type  2   force =     0.00000000    0.00000000    0.00441245
     atom    5 type  2   force =    -0.00000001    0.00000002   -0.00004794
     atom    6 type  2   force =     0.00000001    0.00000001   -0.00020163
     atom    7 type  2   force =    -0.00000001    0.00000001    0.00023483
     atom    8 type  2   force =    -0.00000000    0.00000002    0.00008468
     atom    9 type  2   force =     0.00000000    0.00000000   -0.00441433
     atom   10 type  1   force =    -0.00000000   -0.00000001   -0.00263904
     atom   11 type  1   force =     0.00000000   -0.00000000    0.00260430
     atom   12 type  1   force =     0.00000003   -0.00000003   -0.00003331
     atom   13 type  2   force =     0.00000000    0.00000000    0.00441245
     atom   14 type  2   force =     0.00000001   -0.00000001   -0.00004794
     atom   15 type  2   force =     0.00000001   -0.00000000   -0.00020163
     atom   16 type  2   force =     0.00000000   -0.00000001    0.00023483
     atom   17 type  2   force =     0.00000001   -0.00000000    0.00008468
     atom   18 type  2   force =     0.00000000    0.00000000   -0.00441433
     atom   19 type  1   force =    -0.00000001   -0.00000000   -0.00263902
     atom   20 type  1   force =     0.00000000   -0.00000000    0.00260428
     atom   21 type  1   force =     0.00000001   -0.00000001   -0.00003331
     atom   22 type  2   force =     0.00000000    0.00000000    0.00441245
     atom   23 type  2   force =     0.00000002   -0.00000001   -0.00004795
     atom   24 type  2   force =     0.00000000   -0.00000000   -0.00020161
     atom   25 type  2   force =     0.00000000   -0.00000001    0.00023482
     atom   26 type  2   force =     0.00000001   -0.00000001    0.00008469
     atom   27 type  2   force =     0.00000000   -0.00000000   -0.00441433
     atom   28 type  1   force =    -0.00000000    0.00000000   -0.00263903
     atom   29 type  1   force =    -0.00000000    0.00000000    0.00260428
     atom   30 type  1   force =    -0.00000002    0.00000003   -0.00003332
     atom   31 type  2   force =     0.00000000    0.00000000    0.00441245
     atom   32 type  2   force =    -0.00000000    0.00000001   -0.00004795
     atom   33 type  2   force =    -0.00000000    0.00000001   -0.00020162
     atom   34 type  2   force =    -0.00000001    0.00000000    0.00023482
     atom   35 type  2   force =     0.00000000    0.00000000    0.00008469
     atom   36 type  2   force =     0.00000000    0.00000000   -0.00441433
     atom   37 type  1   force =    -0.00000001   -0.00000000   -0.00263903
     atom   38 type  1   force =    -0.00000000    0.00000000    0.00260429
     atom   39 type  1   force =    -0.00000003    0.00000002   -0.00003332
     atom   40 type  2   force =     0.00000000    0.00000000    0.00441245
     atom   41 type  2   force =    -0.00000000    0.00000001   -0.00004795
     atom   42 type  2   force =    -0.00000001    0.00000001   -0.00020163
     atom   43 type  2   force =    -0.00000001    0.00000001    0.00023482
     atom   44 type  2   force =    -0.00000000    0.00000001    0.00008469
     atom   45 type  2   force =     0.00000000   -0.00000000   -0.00441433
     atom   46 type  1   force =    -0.00000000   -0.00000001   -0.00263904
     atom   47 type  1   force =    -0.00000000   -0.00000000    0.00260430
     atom   48 type  1   force =    -0.00000000   -0.00000001   -0.00003331
     atom   49 type  2   force =     0.00000000    0.00000000    0.00441245
     atom   50 type  2   force =    -0.00000001    0.00000000   -0.00004794
     atom   51 type  2   force =    -0.00000000   -0.00000000   -0.00020163
     atom   52 type  2   force =    -0.00000000    0.00000000    0.00023483
     atom   53 type  2   force =    -0.00000001    0.00000000    0.00008468
     atom   54 type  2   force =    -0.00000000   -0.00000000   -0.00441433
     atom   55 type  1   force =    -0.00000001   -0.00000001   -0.00263904
     atom   56 type  1   force =     0.00000000   -0.00000000    0.00260429
     atom   57 type  1   force =     0.00000003   -0.00000002   -0.00003331
     atom   58 type  2   force =     0.00000000    0.00000000    0.00441245
     atom   59 type  2   force =     0.00000001   -0.00000001   -0.00004794
     atom   60 type  2   force =     0.00000000   -0.00000001   -0.00020163
[...]
     atom  130 type  2   force =     0.00000000    0.00000000    0.00441245
     atom  131 type  2   force =    -0.00000000   -0.00000000   -0.00004795
     atom  132 type  2   force =    -0.00000000    0.00000000   -0.00020162
     atom  133 type  2   force =    -0.00000001   -0.00000000    0.00023482
     atom  134 type  2   force =    -0.00000000   -0.00000001    0.00008469
     atom  135 type  2   force =     0.00000000   -0.00000000   -0.00441433
     atom  136 type  1   force =     0.00000001    0.00000001   -0.00263903
     atom  137 type  1   force =    -0.00000001    0.00000000    0.00260429
     atom  138 type  1   force =    -0.00000001    0.00000001   -0.00003332
     atom  139 type  2   force =     0.00000000    0.00000000    0.00441245
     atom  140 type  2   force =    -0.00000001    0.00000001   -0.00004795
     atom  141 type  2   force =     0.00000000    0.00000001   -0.00020163
     atom  142 type  2   force =    -0.00000001    0.00000000    0.00023483
     atom  143 type  2   force =    -0.00000001    0.00000000    0.00008469
     atom  144 type  2   force =     0.00000001    0.00000000   -0.00441433

     Total force =     0.000314     Total SCF correction =     0.000168
     SCF correction compared to forces is large: reduce conv_thr to get better values
     Energy error            =      4.4E-06 Ry
     Gradient error          =      6.4E-05 Ry/Bohr

     bfgs converged in   4 scf cycles and   3 bfgs steps
     (criteria: energy <  1.0E-04 Ry, force <  1.0E-03 Ry/Bohr)

     End of BFGS Geometry Optimization

     Final energy             =  -23845.2249042397 Ry

     File ./outdir/pwscf.bfgs deleted, as requested
Begin final coordinates

ATOMIC_POSITIONS (angstrom)
Mo            1.5768940032        2.7312805631        6.0850343866
Mo            1.5769197498        0.9104407117       -6.0872367793    0   0   0
Mo           -0.0000233445        1.8208669809       -0.0009470481
S             0.0000044503        0.0000077495       -7.6506323570    0   0   0
S             1.5768927757        0.9104377874       -1.5664076215
S            -0.0000207017        1.8208507346        4.5193521109
S             0.0000053241        0.0000068460       -4.5222282367    0   0   0
S             1.5768922396        0.9104368700        1.5662555513
S            -0.0000192510        1.8208503352        7.6539693938
Mo           -0.0000269593        5.4625800512        6.0850349504
Mo            0.0000011799        3.6417399547       -6.0872367793    0   0   0
Mo           -1.5769270739        4.5521531230       -0.0009381365
S            -1.5769141197        2.7313069925       -7.6506323570    0   0   0
S            -0.0000215810        3.6417320970       -1.5664027742
S            -1.5769403614        4.5521473973        4.5193510659
S            -1.5769132459        2.7313060890       -4.5222282367    0   0   0
S            -0.0000214467        3.6417303437        1.5662570089
S            -1.5769405859        4.5521476392        7.6539681659
Mo           -1.5769462962        8.1938794653        6.0850349312
Mo           -1.5769173901        6.3730391977       -6.0872367793    0   0   0
Mo           -3.1538549751        7.2834589383       -0.0009417400
S            -3.1538326896        5.4626062355       -7.6506323570    0   0   0
S            -1.5769393687        6.3730269350       -1.5663925213
S            -3.1538599948        7.2834463591        4.5193507939
S            -3.1538318159        5.4626053320       -4.5222282367    0   0   0
S            -1.5769412425        6.3730281908        1.5662529785
S            -3.1538593942        7.2834457152        7.6539698156
Mo            3.1538114375       -0.0000171003        6.0850365924
Mo           -3.1538359601        9.1043384407       -6.0872367793    0   0   0
Mo           -4.7307896871       10.0147837294       -0.0009469942
S            -4.7307512596        8.1939054785       -7.6506323570    0   0   0
S            -3.1538607715        9.1043306738       -1.5663929214
S            -4.7307744980       10.0147454947        4.5193511772
S            -4.7307503859        8.1939045750       -4.5222282367    0   0   0
S            -3.1538655210        9.1043316960        1.5662483739
S            -4.7307748145       10.0147446340        7.6539676321
Mo            4.7307224729        2.7312807495        6.0850327259
Mo            4.7307503218        0.9104407117       -6.0872367793    0   0   0
Mo            3.1537958906        1.8208723636       -0.0009456604
S             3.1538350223        0.0000077495       -7.6506323570    0   0   0
S             4.7307230907        0.9104342803       -1.5663992515
S             3.1538096374        1.8208495678        4.5193503370
S             3.1538358961        0.0000068460       -4.5222282367    0   0   0
S             4.7307225368        0.9104377585        1.5662530771
S             3.1538098883        1.8208494092        7.6539699956
Mo            3.1538061406        5.4625793351        6.0850340875
Mo            3.1538317519        3.6417399547       -6.0872367793    0   0   0
Mo            1.5768879520        4.5521703481       -0.0009425406
S             1.5769164523        2.7313069925       -7.6506323570    0   0   0
S             3.1538019528        3.6417333563       -1.5664035807
S             1.5768913355        4.5521467790        4.5193514353
S             1.5769173261        2.7313060890       -4.5222282367    0   0   0
S             3.1538024768        3.6417327685        1.5662556465
S             1.5768916335        4.5521469018        7.6539682549
Mo            1.5768849201        8.1938799791        6.0850361581
Mo            1.5769131819        6.3730391977       -6.0872367793    0   0   0
Mo           -0.0000138117        7.2834593190       -0.0009405243
S            -0.0000021176        5.4626062355       -7.6506323570    0   0   0
S             1.5768881234        6.3730290062       -1.5664032417
S            -0.0000286893        7.2834455104        4.5193515191
[...]
S             6.3076590264        5.4626062355       -7.6506323570    0   0   0
S             7.8845487285        6.3730298581       -1.5663942010
S             6.3076355794        7.2834444566        4.5193523836
S             6.3076599001        5.4626053320       -4.5222282367    0   0   0
S             7.8845453570        6.3730307392        1.5662478831
S             6.3076368181        7.2834451223        7.6539696165
Mo           -0.0000153734       -0.0000163511        6.0850349431
Mo            6.3076557559        9.1043384407       -6.0872367793    0   0   0
Mo            4.7307066983       10.0147739622       -0.0009450354
S             4.7307404564        8.1939054785       -7.6506323570    0   0   0
S             6.3076275330        9.1043314330       -1.5664018173
S             4.7307152859       10.0147468205        4.5193514102
S             4.7307413301        8.1939045750       -4.5222282367    0   0   0
S             6.3076282294        9.1043313762        1.5662500026
S             4.7307156940       10.0147457023        7.6539702304
End final coordinates

     Writing all to output data dir ./outdir/pwscf.save/

     General routines

     Parallel routines

   This run was terminated on:  13:40:48   4Aug2023

   JOB DONE.