     Program PWSCF v.7.3 starts on 19Mar2024 at 15:24:10

     Waiting for input...
     Reading input from standard input
Warning: card &CELL ignored
Warning: card / ignored

     Current dimensions of program PWSCF are:
     Max number of different atomic species (ntypx) = 10
     Max number of k-points (npk) =  40000
     Max angular momentum in pseudopotentials (lmaxx) =  4
     file Mo.pbe-spn-kjpaw_psl.1.0.0.UPF: wavefunction(s)  4S 4D renormalized
     file S.pbe-n-kjpaw_psl.1.0.0.UPF: wavefunction(s)  3S 3P renormalized
     file Pd.pbe-spn-kjpaw_psl.1.0.0.UPF: wavefunction(s)  4S 5S 4D renormalized
     file Pt.pbe-spfn-kjpaw_psl.1.0.0.UPF: wavefunction(s)  5P 4F renormalized

     R & G space division:  proc/nbgrp/npool/nimage =      36
     Subspace diagonalization in iterative solution of the eigenvalue problem:
     one sub-group per band group will be used

     Using Slab Decomposition

     bravais-lattice index     =            0
     lattice parameter (alat)  =      23.8199  a.u.
     unit-cell volume          =   33861.0370 (a.u.)^3
     number of atoms/cell      =          194
     number of atomic types    =            4
     number of electrons       =      1714.00
     number of Kohn-Sham states=         1028
     kinetic-energy cutoff     =      77.0000  Ry
     charge density cutoff     =     539.0000  Ry
     scf convergence threshold =      1.0E-06
     mixing beta               =       0.2000
     number of iterations used =            8  plain     mixing
     energy convergence thresh.=      1.0E-04
     force convergence thresh. =      1.0E-03
     Exchange-correlation= SLA  PW   PBX  PBC
                           (   1   4   3   4   0   0   0)
     nstep                     =         1000

     Effective Screening Medium Method
     Boundary Conditions: Vacuum-Slab-Vacuum
     total charge in unit cell        =   0.0000
     grid points for fit at edges     =        4

     celldm(1)=  23.819920  celldm(2)=   0.000000  celldm(3)=   0.000000
     celldm(4)=   0.000000  celldm(5)=   0.000000  celldm(6)=   0.000000

     crystal axes: (cart. coord. in units of alat)
               a(1) = (   1.000000   0.000000   0.000000 )
               a(2) = (  -0.499999   0.866026   0.000000 )
               a(3) = (   0.000000   0.000000   2.893000 )

     reciprocal axes: (cart. coord. in units 2 pi/alat)
               b(1) = (  1.000000  0.577349  0.000000 )
               b(2) = (  0.000000  1.154700  0.000000 )
               b(3) = (  0.000000  0.000000  0.345662 )

     PseudoPot. # 1 for Mo read from file:
     ./pseudo/Mo.pbe-spn-kjpaw_psl.1.0.0.UPF
     MD5 check sum: 317bf72632116215fd98f72de1686f13
     Pseudo is Projector augmented-wave + core cor, Zval = 14.0
     Generated using 'atomic' code by A. Dal Corso  v.7.2
     Shape of augmentation charge: PSQ
     Using radial grid of 1229 points,  6 beta functions with:
                l(1) =   0
                l(2) =   0
                l(3) =   1
                l(4) =   1
                l(5) =   2
                l(6) =   2
     Q(r) pseudized with 0 coefficients

     PseudoPot. # 2 for S  read from file:
     ./pseudo/S.pbe-n-kjpaw_psl.1.0.0.UPF
     MD5 check sum: 8b7b5302570d38d5e87fed6a1065abda
     Pseudo is Projector augmented-wave + core cor, Zval =  6.0
     Generated using 'atomic' code by A. Dal Corso  v.7.2
     Shape of augmentation charge: PSQ
     Using radial grid of 1151 points,  6 beta functions with:
                l(1) =   0
                l(2) =   0
                l(3) =   1
                l(4) =   1
                l(5) =   2
                l(6) =   2
     Q(r) pseudized with 0 coefficients

     PseudoPot. # 3 for Pd read from file:
     ./pseudo/Pd.pbe-spn-kjpaw_psl.1.0.0.UPF
     MD5 check sum: a60571a671f2502b8a6a4569d20a6edb
     Pseudo is Projector augmented-wave + core cor, Zval = 18.0
     Generated using 'atomic' code by A. Dal Corso  v.7.2
     Shape of augmentation charge: PSQ
     Using radial grid of 1235 points,  6 beta functions with:
                l(1) =   0
                l(2) =   0
                l(3) =   1
                l(4) =   1
                l(5) =   2
                l(6) =   2
     Q(r) pseudized with 0 coefficients

     PseudoPot. # 4 for Pt read from file:
     ./pseudo/Pt.pbe-spfn-kjpaw_psl.1.0.0.UPF
     MD5 check sum: 620096ebf4e6ebacc94de60fd67efcb5
     Pseudo is Projector augmented-wave + core cor, Zval = 32.0
     Generated using 'atomic' code by A. Dal Corso  v.7.2
     Shape of augmentation charge: PSQ
     Using radial grid of 1277 points,  8 beta functions with:
                l(1) =   0
                l(2) =   0
                l(3) =   1
                l(4) =   1
                l(5) =   2
                l(6) =   2
                l(7) =   3
                l(8) =   3
     Q(r) pseudized with 0 coefficients

     atomic species   valence    mass     pseudopotential
     Mo               14.00    95.95000     Mo( 1.00)
     S                 6.00    32.06000     S ( 1.00)
     Pd               18.00   106.42000     Pd( 1.00)
     Pt               32.00   195.08400     Pt( 1.00)

     No symmetry found

   Cartesian axes

     site n.     atom                  positions (alat units)
         1        Mo     tau(   1) = (   0.0000010   0.1443372  -0.7272732  )
         2        Mo     tau(   2) = (   0.1249995   0.0721706  -0.2424038  )
         3        S      tau(   3) = (   0.0000015   0.1443386  -0.3667807  )
         4        S      tau(   4) = (   0.1250010   0.0721682  -0.6030489  )
         5        S      tau(   5) = (   0.1250010   0.0721683  -0.8514963  )
         6        S      tau(   6) = (   0.0000015   0.1443389  -0.1180260  )
         7        Mo     tau(   7) = (   0.0000007   0.1443589   0.2424205  )
         8        Mo     tau(   8) = (   0.1250041   0.0720322   0.7266168  )
         9        S      tau(   9) = (   0.0000742   0.1444871   0.6020949  )
        10        S      tau(  10) = (   0.1250024   0.0721701   0.3667478  )
        11        S      tau(  11) = (   0.1250035   0.0721876   0.1180348  )
        12        S      tau(  12) = (  -0.0004118   0.1430864   0.8514340  )
        13        Mo     tau(  13) = (  -0.1249989   0.3608437  -0.7272732  )
        14        Mo     tau(  14) = (   0.0000030   0.2886752  -0.2424042  )
        15        S      tau(  15) = (  -0.1249977   0.3608450  -0.3667802  )
        16        S      tau(  16) = (   0.0000012   0.2886747  -0.6030489  )
        17        S      tau(  17) = (   0.0000012   0.2886748  -0.8514963  )
        18        S      tau(  18) = (  -0.1249977   0.3608454  -0.1180274  )
        19        Mo     tau(  19) = (  -0.1249729   0.3608584   0.2424608  )
        20        Mo     tau(  20) = (  -0.0007193   0.2876626   0.7275440  )
        21        S      tau(  21) = (  -0.1251115   0.3607789   0.6027257  )
        22        S      tau(  22) = (   0.0000621   0.2887099   0.3668377  )
        23        S      tau(  23) = (  -0.0000096   0.2886902   0.1180527  )
        24        S      tau(  24) = (  -0.1254673   0.3605734   0.8517408  )
        25        Mo     tau(  25) = (  -0.2499987   0.5773502  -0.7272732  )
        26        Mo     tau(  26) = (  -0.1249977   0.5051839  -0.2424055  )
        27        S      tau(  27) = (  -0.2499981   0.5773518  -0.3667809  )
        28        S      tau(  28) = (  -0.1249986   0.5051812  -0.6030489  )
        29        S      tau(  29) = (  -0.1249986   0.5051813  -0.8514963  )
        30        S      tau(  30) = (  -0.2499979   0.5773512  -0.1180266  )
        31        Mo     tau(  31) = (  -0.2499795   0.5773389   0.2424205  )
        32        Mo     tau(  32) = (  -0.1262356   0.5050639   0.7275441  )
        33        S      tau(  33) = (  -0.2498323   0.5773390   0.6020948  )
        34        S      tau(  34) = (  -0.1249376   0.5052159   0.3668377  )
        35        S      tau(  35) = (  -0.1249905   0.5051638   0.1180531  )
        36        S      tau(  36) = (  -0.2512883   0.5776183   0.8514340  )
        37        Mo     tau(  37) = (  -0.3749985   0.7938567  -0.7272732  )
        38        Mo     tau(  38) = (  -0.2500001   0.7216874  -0.2424031  )
        39        S      tau(  39) = (  -0.3749980   0.7938584  -0.3667800  )
        40        S      tau(  40) = (  -0.2499984   0.7216877  -0.6030489  )
        41        S      tau(  41) = (  -0.2499984   0.7216878  -0.8514963  )
        42        S      tau(  42) = (  -0.3749982   0.7938585  -0.1180264  )
        43        Mo     tau(  43) = (  -0.3749962   0.7938568   0.2423838  )
        44        Mo     tau(  44) = (  -0.2501148   0.7217588   0.7266170  )
        45        S      tau(  45) = (  -0.3749945   0.7938590   0.6021274  )
        46        S      tau(  46) = (  -0.2499958   0.7216877   0.3667488  )
        47        S      tau(  47) = (  -0.2499810   0.7216794   0.1180323  )
        48        S      tau(  48) = (  -0.3749953   0.7938585   0.8511588  )
        49        Mo     tau(  49) = (   0.2500010   0.1443372  -0.7272732  )
        50        Mo     tau(  50) = (   0.3750034   0.0721723  -0.2424032  )
        51        S      tau(  51) = (   0.2500017   0.1443391  -0.3667788  )
        52        S      tau(  52) = (   0.3750010   0.0721682  -0.6030489  )
        53        S      tau(  53) = (   0.3750010   0.0721683  -0.8514963  )
        54        S      tau(  54) = (   0.2500016   0.1443391  -0.1180271  )
        55        Mo     tau(  55) = (   0.2500054   0.1443594   0.2424211  )
        56        Mo     tau(  56) = (   0.3749279   0.0721263   0.7263991  )
        57        S      tau(  57) = (   0.2499344   0.1444864   0.6020948  )
        58        S      tau(  58) = (   0.3750316   0.0721860   0.3667597  )
        59        S      tau(  59) = (   0.3749924   0.0721644   0.1180346  )
        60        S      tau(  60) = (   0.2504199   0.1430865   0.8514340  )
[...]
       180        S      tau( 180) = (   0.5012979   0.5776190   0.8514332  )
       181        Mo     tau( 181) = (   0.3750016   0.7938567  -0.7272732  )
       182        Mo     tau( 182) = (   0.5000025   0.7216901  -0.2424039  )
       183        S      tau( 183) = (   0.3750019   0.7938578  -0.3667793  )
       184        S      tau( 184) = (   0.5000016   0.7216877  -0.6030489  )
       185        S      tau( 185) = (   0.5000016   0.7216878  -0.8514963  )
       186        S      tau( 186) = (   0.3750020   0.7938579  -0.1180272  )
       187        Mo     tau( 187) = (   0.3749848   0.7938487   0.2424206  )
       188        Mo     tau( 188) = (   0.5001249   0.7217591   0.7266160  )
       189        S      tau( 189) = (   0.3749125   0.7937251   0.6020942  )
       190        S      tau( 190) = (   0.5000021   0.7216868   0.3667472  )
       191        S      tau( 191) = (   0.4999874   0.7216780   0.1180346  )
       192        S      tau( 192) = (   0.3758826   0.7948451   0.8514332  )
       193        Pd     tau( 193) = (   0.1250063   0.5051842   0.9601361  )
       194        Pt     tau( 194) = (  -0.0004760   0.7228108   0.9704117  )

     DFT-D3 Dispersion Correction (3-body terms):
       Reference C6 values for interpolation:

[...]
   -40.6930 -40.6930 -40.6930 -40.6930 -40.6930 -40.6930 -40.6928 -40.6921
   -40.6921 -40.6921 -40.6921 -40.6827 -40.6807 -40.6773 -40.6731 -40.6583
   -40.6582 -40.6582 -40.6582 -40.6582 -40.6582 -40.6582 -40.6582 -40.6573
   -40.6573 -40.6573 -40.6573 -40.6479 -40.6461 -40.6461 -40.6461 -40.6460
   -40.6451 -40.6451 -40.6421 -40.6380 -40.6314 -40.6272 -40.6268 -40.6268
   -40.6268 -40.6267 -40.6258 -40.6258 -40.6180 -40.6150 -40.6098 -40.6098
   -40.6098 -40.6097 -40.6088 -40.6088 -40.6005 -40.5891 -40.5791 -40.5791
   -40.5791 -40.5790 -40.5781 -40.5781 -40.5718 -40.5619 -40.5517 -20.0776
   -19.9118 -19.8911 -19.8527 -19.7934 -19.7609 -19.6836 -19.6699 -19.5640
   -19.4872 -19.4540 -19.4357 -19.3636 -19.3449 -19.2589 -19.2486 -19.1270
   -18.8829 -18.8637 -18.7932 -18.7799 -18.7581 -18.7472 -18.7429 -18.7409
   -18.7216 -18.7114 -18.6852 -18.6780 -18.6705 -18.6580 -18.6438 -18.6205
   -18.6027 -18.5960 -18.5769 -18.5761 -18.5680 -18.5537 -18.5461 -18.5377
   -18.5052 -18.5004 -18.4979 -18.4912 -18.4604 -18.4352 -18.4302 -18.4278
   -18.4073 -18.4004 -18.3733 -18.3559 -18.3431 -18.3407 -18.3058 -18.2792
   -18.2748 -18.2695 -18.2544 -18.2232 -18.2156 -18.2056 -18.1812 -18.1586
   -18.1450 -18.1405 -18.1350 -18.1254 -18.1236 -18.1208 -18.1190 -18.1104
   -18.0959 -18.0946 -18.0924 -18.0892 -18.0875 -18.0780 -18.0758 -18.0725
   -18.0652 -18.0626 -18.0523 -18.0325 -18.0310 -18.0278 -18.0238 -18.0218
   -18.0197 -18.0170 -18.0111 -18.0100 -18.0003 -17.9710 -17.9675 -17.9597
   -17.9571 -17.9514 -17.9430 -17.9151 -17.9131 -17.9059 -17.8980 -17.8746
   -17.8702 -17.8670 -17.8616 -17.8574 -17.8475 -17.8417 -17.8415 -17.8411
   -17.8402 -17.8393 -17.8384 -17.8269 -17.8259 -17.8078 -17.8058 -17.7836
   -17.7816 -17.7646 -17.7618 -17.7497 -17.7479 -17.7417 -17.7415 -12.1389
   -11.8851 -11.7534 -11.7402 -11.7046 -11.6278 -11.5704 -11.5407 -11.5257
   -11.5201 -11.5170 -11.5090 -11.4956 -11.4906 -11.4712 -11.4423 -11.4330
   -11.4140 -11.3988 -11.3886 -11.3797 -11.3617 -11.3533 -11.3425 -11.3269
   -11.3054 -11.3028 -11.2920 -11.2874 -11.2838 -11.2813 -11.2764 -11.2712
   -11.2357 -11.2274 -11.2192 -11.2140 -11.2004 -11.1955 -11.1905 -11.1902
   -11.1802 -11.1725 -11.1689 -11.1669 -11.1426 -11.1208 -11.1115 -11.0960
   -11.0882 -11.0833 -11.0397 -11.0277 -10.9827 -10.9756 -10.9603 -10.9492
   -10.9461 -10.9309 -10.9175 -10.9045 -10.9000 -10.8918 -10.8594 -10.8569
   -10.8519 -10.8444 -10.8372 -10.8348 -10.8336 -10.8329 -10.8318 -10.8304
   -10.8207 -10.8177 -10.8172 -10.8146 -10.8139 -10.8066 -10.8056 -10.8033
[...]
    -3.3879  -3.3754  -3.3721  -3.3674  -3.3655  -3.3625  -3.3618  -3.3571
    -3.3285  -3.3258  -3.3166  -3.3122  -3.3059  -3.3043  -3.3001  -3.2974
    -3.2956  -3.2916  -3.2745  -3.2702  -3.2618  -3.2591  -3.2518  -3.2497
    -3.2431  -3.2325  -3.2307  -3.2295  -3.2176  -3.2162  -3.2050  -3.2011
    -3.1940  -3.1913  -3.1841  -3.1824  -3.1823  -3.1765  -3.1616  -3.1298
    -3.1193  -3.1154  -3.0955  -3.0925  -3.0893  -3.0857  -3.0796  -3.0463
    -3.0461  -3.0442  -3.0422  -3.0420  -3.0411  -3.0349  -3.0309  -3.0294
    -3.0273  -3.0252  -3.0174  -3.0101  -3.0093  -3.0034  -3.0017  -2.9986
    -2.9928  -2.9902  -2.9870  -2.9837  -2.9794  -2.9686  -2.9675  -2.9637
    -2.9620  -2.9544  -2.9503  -2.9413  -2.9337  -2.9267  -2.9181  -2.9117
    -2.9040  -2.8985  -2.8965  -2.8934  -2.8743  -2.8231  -2.8164  -2.8111
    -2.8059  -2.7689  -2.7581  -2.7397  -2.7340  -2.6446  -2.6309  -2.6160
    -2.6033  -2.5937  -2.5822  -2.5800  -2.5666  -2.5581  -2.5526  -2.5473
    -2.5465  -2.5431  -2.5338  -2.4560  -2.4266  -2.4210  -2.4152  -2.4089
    -2.3975  -2.3918  -2.3641  -2.3633

     the Fermi energy is    -4.7407 ev

!    total energy              =  -33980.29849727 Ry
     total all-electron energy =   -667406.151504 Ry
     estimated scf accuracy    <          6.8E-09 Ry
     smearing contrib. (-TS)   =      -0.00000013 Ry
     internal energy E=F+TS    =  -33980.29849714 Ry

     The total energy is F=E-TS. E is the sum of the following terms:
     one-electron contribution = 1161270.04014191 Ry
     hartree contribution      = -580812.49239546 Ry
     xc contribution           =   -2010.77045977 Ry
     ewald contribution        = -591118.70411212 Ry
     DFT-D3 Dispersion         =      -5.43184831 Ry
     one-center paw contrib.   =  -21302.93982339 Ry

     convergence has been achieved in   9 iterations

     negative rho (up, down):  9.063E-04 0.000E+00

     Forces acting on atoms (cartesian axes, Ry/au):

     atom    1 type  1   force =    -0.00000051    0.00000180    0.00068792
     atom    2 type  1   force =     0.00002460   -0.00000624   -0.00000146
     atom    3 type  2   force =     0.00000060    0.00000224    0.00000166
     atom    4 type  2   force =    -0.00000123    0.00000218    0.00161515
     atom    5 type  2   force =    -0.00000146    0.00000164   -0.00235999
     atom    6 type  2   force =     0.00000051    0.00000263   -0.00000044
     atom    7 type  1   force =    -0.00000242    0.00000248    0.00002964
     atom    8 type  1   force =    -0.00003158    0.00002042    0.00006517
     atom    9 type  2   force =     0.00009074    0.00006494   -0.00021377
     atom   10 type  2   force =     0.00001195   -0.00000481    0.00000121
     atom   11 type  2   force =    -0.00000969    0.00000976   -0.00000057
     atom   12 type  2   force =    -0.00000935    0.00000441    0.00000303
     atom   13 type  1   force =     0.00000070    0.00000140    0.00068800
     atom   14 type  1   force =    -0.00001344    0.00001827    0.00000247
     atom   15 type  2   force =     0.00000324    0.00000209    0.00000386
     atom   16 type  2   force =    -0.00000100    0.00000214    0.00161526
     atom   17 type  2   force =    -0.00000127    0.00000144   -0.00235990
     atom   18 type  2   force =     0.00000278    0.00000872   -0.00001365
     atom   19 type  1   force =     0.00000664    0.00000990    0.00000873
     atom   20 type  1   force =    -0.00000410    0.00005440   -0.00000039
     atom   21 type  2   force =     0.00009348   -0.00017034   -0.00017815
     atom   22 type  2   force =    -0.00001328    0.00000454    0.00001032
     atom   23 type  2   force =    -0.00000548   -0.00000871    0.00001039
     atom   24 type  2   force =     0.00002214   -0.00004038   -0.00001280
     atom   25 type  1   force =     0.00000088    0.00000078    0.00068795
     atom   26 type  1   force =    -0.00000021   -0.00000710    0.00000803
     atom   27 type  2   force =     0.00000047    0.00000355    0.00000117
     atom   28 type  2   force =    -0.00000084    0.00000202    0.00161554
     atom   29 type  2   force =    -0.00000126    0.00000155   -0.00236011
     atom   30 type  2   force =     0.00000521   -0.00000045   -0.00000944
     atom   31 type  1   force =     0.00000876   -0.00001528    0.00001203
     atom   32 type  1   force =    -0.00022057   -0.00029238    0.00003695
     atom   33 type  2   force =     0.00003276    0.00037851   -0.00020151
     atom   34 type  2   force =    -0.00000603    0.00001071    0.00001108
     atom   35 type  2   force =    -0.00000006   -0.00000618    0.00000967
     atom   36 type  2   force =    -0.00008251   -0.00014585    0.00015573
     atom   37 type  1   force =     0.00000047    0.00000115    0.00068728
     atom   38 type  1   force =     0.00002416    0.00002114   -0.00000823
     atom   39 type  2   force =    -0.00000097    0.00000292    0.00000495
     atom   40 type  2   force =    -0.00000105    0.00000219    0.00161523
     atom   41 type  2   force =    -0.00000131    0.00000167   -0.00235989
     atom   42 type  2   force =    -0.00000181    0.00000237   -0.00000665
     atom   43 type  1   force =    -0.00000908    0.00000645    0.00000464
     atom   44 type  1   force =    -0.00022015   -0.00011031    0.00009473
     atom   45 type  2   force =     0.00014974   -0.00004689    0.00019800
     atom   46 type  2   force =    -0.00000815   -0.00001372    0.00001770
     atom   47 type  2   force =     0.00000427    0.00000588    0.00000082
     atom   48 type  2   force =    -0.00004854    0.00009236    0.00010651
     atom   49 type  1   force =    -0.00000026    0.00000217    0.00068770
     atom   50 type  1   force =    -0.00002394   -0.00002297   -0.00000538
     atom   51 type  2   force =    -0.00000129    0.00000451    0.00000539
     atom   52 type  2   force =    -0.00000135    0.00000194    0.00161550
     atom   53 type  2   force =    -0.00000137    0.00000164   -0.00235997
     atom   54 type  2   force =    -0.00000190    0.00000334   -0.00000994
     atom   55 type  1   force =    -0.00000689    0.00000566    0.00000519
     atom   56 type  1   force =    -0.00011803    0.00023524    0.00004351
     atom   57 type  2   force =     0.00000353   -0.00007967    0.00016118
     atom   58 type  2   force =     0.00000470    0.00000850    0.00001465
     atom   59 type  2   force =    -0.00000917   -0.00002179   -0.00000127
     atom   60 type  2   force =    -0.00016045   -0.00008919    0.00016639
[...]
     atom  180 type  2   force =    -0.00001165   -0.00019085   -0.00018474
     atom  181 type  1   force =    -0.00000040    0.00000088    0.00068819
     atom  182 type  1   force =    -0.00001187   -0.00000851   -0.00000015
     atom  183 type  2   force =    -0.00000285    0.00000035    0.00000509
     atom  184 type  2   force =    -0.00000128    0.00000217    0.00161532
     atom  185 type  2   force =    -0.00000132    0.00000178   -0.00235990
     atom  186 type  2   force =    -0.00000487   -0.00000201   -0.00000626
     atom  187 type  1   force =     0.00000103    0.00000608    0.00000737
     atom  188 type  1   force =     0.00001468   -0.00005645    0.00007532
     atom  189 type  2   force =    -0.00015542   -0.00005133    0.00001987
     atom  190 type  2   force =     0.00000701    0.00001774    0.00000052
     atom  191 type  2   force =     0.00000489   -0.00000151    0.00000845
     atom  192 type  2   force =    -0.00001078    0.00011032   -0.00005026
     atom  193 type  3   force =    -0.00042942    0.00019010   -0.00077322
     atom  194 type  4   force =     0.00005765   -0.00050480    0.00033558

     Total force =     0.002255     Total SCF correction =     0.000789
     SCF correction compared to forces is large: reduce conv_thr to get better values
     Energy error            =      6.8E-06 Ry
     Gradient error          =      8.5E-04 Ry/Bohr

     bfgs converged in  20 scf cycles and  19 bfgs steps
     (criteria: energy <  1.0E-04 Ry, force <  1.0E-03 Ry/Bohr)

     End of BFGS Geometry Optimization

     Final energy             =  -33980.2984972680 Ry

     File ./outdir/pwscf.bfgs deleted, as requested
Begin final coordinates

ATOMIC_POSITIONS (angstrom)
Mo               0.0000119917        1.8193638619       -9.1672481230    0   0   0
Mo               1.5756136568        0.9097075315       -3.0554901653    0   0   0
S                0.0000188998        1.8193822938       -4.6232556019    0   0   0
S                1.5756321638        0.9096773839       -7.6014065489    0   0   0
S                1.5756326175        0.9096785128      -10.7330757790    0   0   0
S                0.0000189190        1.8193860094       -1.4877129945    0   0   0
Mo               0.0001321687        1.8195319482        3.0555792321
Mo               1.5771541138        0.9106556722        9.1622846696
S                0.0055028696        1.8238693432        7.5914720461
S                1.5756570319        0.9099005340        4.6233717190
S                1.5759088669        0.9097316881        1.4881292673
S               -0.0035980492        1.8112556531       10.7321268842
Mo              -1.5756053507        4.5484193819       -9.1672481230    0   0   0
Mo               0.0000378379        3.6387394919       -3.0554952701    0   0   0
S               -1.5755913433        4.5484363582       -4.6232494962    0   0   0
S                0.0000148214        3.6387329039       -7.6014065489    0   0   0
S                0.0000152751        3.6387340328      -10.7330757790    0   0   0
S               -1.5755906502        4.5484413613       -1.4877305502    0   0   0
Mo              -1.5755248285        4.5485718630        3.0562358428
Mo              -0.0031188350        3.6319384969        9.1701057616
S               -1.5754520638        4.5331599805        7.5765099860
S                0.0007119951        3.6389804608        4.6233337998
S                0.0000073318        3.6390902830        1.4880867101
S               -1.5976056008        4.5295553074       10.7221824239
Mo              -3.1512226931        7.2774749019       -9.1672481230    0   0   0
Mo              -1.5755910988        6.3678216792       -3.0555115988    0   0   0
S               -3.1512162438        7.2774954350       -4.6232578178    0   0   0
S               -1.5756025210        6.3677884239       -7.6014065489    0   0   0
S               -1.5756020673        6.3677895528      -10.7330757790    0   0   0
S               -3.1512127704        7.2774877076       -1.4877200710    0   0   0
Mo              -3.1511116896        7.2776176521        3.0562280962
Mo              -1.6213132269        6.3420153821        9.1479382156
S               -3.1662251749        7.2852595681        7.5782096433
S               -1.5752634656        6.3681364632        4.6243259315
S               -1.5755536674        6.3679186356        1.4885397232
S               -3.1747049137        7.2695168280       10.7224432364
Mo              -4.7268400355       10.0065304219       -9.1672481230    0   0   0
Mo              -3.1512405618        9.0968403586       -3.0554816746    0   0   0
S               -4.7268341792       10.0065523623       -4.6232463762    0   0   0
S               -3.1512198634        9.0968439439       -7.6014065489    0   0   0
S               -3.1512194097        9.0968450728      -10.7330757790    0   0   0
S               -4.7268370797       10.0065537885       -1.4877176751    0   0   0
Mo              -4.7266277575       10.0066112828        3.0559375355
Mo              -3.1619482409        9.0970316162        9.1704042460
S               -4.7192330083       10.0104237619        7.5884010496
S               -3.1504374751        9.0973519037        4.6235667516
S               -3.1510548557        9.0968192621        1.4882156523
S               -4.7386242759       10.0075433804       10.7312525795
Mo               3.1512517547        1.8193638619       -9.1672481230    0   0   0
Mo               4.7269020221        0.9097289540       -3.0554823951    0   0   0
S                3.1512612351        1.8193882564       -4.6232320683    0   0   0
S                4.7268719268        0.9096773839       -7.6014065489    0   0   0
S                4.7268723805        0.9096785128      -10.7330757790    0   0   0
S                3.1512592485        1.8193890201       -1.4877261251    0   0   0
Mo               3.1514164577        1.8194578212        3.0561951505
Mo               4.7220038415        0.9195849030        9.1778262026
S                3.1566397100        1.8211550204        7.5969665441
S                4.7270092264        0.9091582564        4.6240692112
S                4.7269454307        0.9097819691        1.4882732204
S                3.1443949035        1.8189097887       10.7436793730
[...]
S                6.3148549211        7.2818770777       10.7269088356
Mo               4.7268792535       10.0065304219       -9.1672481230    0   0   0
Mo               6.3025111524        9.0968738021       -3.0554915260    0   0   0
S                4.7268840634       10.0065452125       -4.6232380477    0   0   0
S                6.3024994256        9.0968439439       -7.6014065489    0   0   0
S                6.3024998793        9.0968450728      -10.7330757790    0   0   0
S                4.7268847312       10.0065459141       -1.4877283294    0   0   0
Mo               4.7266543508       10.0064444654        3.0562514489
Mo               6.3070550323        9.0996188184        9.1517532908
S                4.7293111399       10.0086931583        7.5843699460
S                6.3026278466        9.0967012701        4.6234046083
S                6.3023655587        9.0970226453        1.4882703798
S                4.7581742192       10.0212451062       10.7313724728
Pd               1.5421221393        6.4916388934       12.1775222265
Pt               0.0726550388        9.0183861379       12.0316186380
End final coordinates

     Writing all to output data dir ./outdir/pwscf.save/ :
     XML data file, charge density, pseudopotentials, collected wavefunctions

     General routines

     Parallel routines

   This run was terminated on:  22:30: 7  19Mar2024

   JOB DONE.