     Program PWSCF v.7.3 starts on 15Apr2024 at 17:34: 7

     Waiting for input...
     Reading input from standard input
Warning: card &CELL ignored
Warning: card / ignored

     Current dimensions of program PWSCF are:
     Max number of different atomic species (ntypx) = 10
     Max number of k-points (npk) =  40000
     Max angular momentum in pseudopotentials (lmaxx) =  4
     file Mo.pbe-spn-kjpaw_psl.1.0.0.UPF: wavefunction(s)  4S 4D renormalized
     file S.pbe-n-kjpaw_psl.1.0.0.UPF: wavefunction(s)  3S 3P renormalized
     file Pt.pbe-spfn-kjpaw_psl.1.0.0.UPF: wavefunction(s)  5P 4F renormalized
     file Pd.pbe-spn-kjpaw_psl.1.0.0.UPF: wavefunction(s)  4S 5S 4D renormalized

     R & G space division:  proc/nbgrp/npool/nimage =      36
     Subspace diagonalization in iterative solution of the eigenvalue problem:
     one sub-group per band group will be used

     Using Slab Decomposition

     bravais-lattice index     =            0
     lattice parameter (alat)  =      23.8199  a.u.
     unit-cell volume          =   33861.0370 (a.u.)^3
     number of atoms/cell      =          195
     number of atomic types    =            4
     number of electrons       =      1746.00
     number of Kohn-Sham states=         1048
     kinetic-energy cutoff     =      77.0000  Ry
     charge density cutoff     =     539.0000  Ry
     scf convergence threshold =      1.0E-06
     mixing beta               =       0.2000
     number of iterations used =            8  plain     mixing
     energy convergence thresh.=      1.0E-04
     force convergence thresh. =      1.0E-03
     Exchange-correlation= SLA  PW   PBX  PBC
                           (   1   4   3   4   0   0   0)
     nstep                     =         1000

     Effective Screening Medium Method
     Boundary Conditions: Vacuum-Slab-Vacuum
     total charge in unit cell        =   0.0000
     grid points for fit at edges     =        4

     celldm(1)=  23.819920  celldm(2)=   0.000000  celldm(3)=   0.000000
     celldm(4)=   0.000000  celldm(5)=   0.000000  celldm(6)=   0.000000

     crystal axes: (cart. coord. in units of alat)
               a(1) = (   1.000000   0.000000   0.000000 )
               a(2) = (  -0.499999   0.866026   0.000000 )
               a(3) = (   0.000000   0.000000   2.893000 )

     reciprocal axes: (cart. coord. in units 2 pi/alat)
               b(1) = (  1.000000  0.577349  0.000000 )
               b(2) = (  0.000000  1.154700  0.000000 )
               b(3) = (  0.000000  0.000000  0.345662 )

     PseudoPot. # 1 for Mo read from file:
     ./pseudo/Mo.pbe-spn-kjpaw_psl.1.0.0.UPF
     MD5 check sum: 317bf72632116215fd98f72de1686f13
     Pseudo is Projector augmented-wave + core cor, Zval = 14.0
     Generated using 'atomic' code by A. Dal Corso  v.7.2
     Shape of augmentation charge: PSQ
     Using radial grid of 1229 points,  6 beta functions with:
                l(1) =   0
                l(2) =   0
                l(3) =   1
                l(4) =   1
                l(5) =   2
                l(6) =   2
     Q(r) pseudized with 0 coefficients

     PseudoPot. # 2 for S  read from file:
     ./pseudo/S.pbe-n-kjpaw_psl.1.0.0.UPF
     MD5 check sum: 8b7b5302570d38d5e87fed6a1065abda
     Pseudo is Projector augmented-wave + core cor, Zval =  6.0
     Generated using 'atomic' code by A. Dal Corso  v.7.2
     Shape of augmentation charge: PSQ
     Using radial grid of 1151 points,  6 beta functions with:
                l(1) =   0
                l(2) =   0
                l(3) =   1
                l(4) =   1
                l(5) =   2
                l(6) =   2
     Q(r) pseudized with 0 coefficients

     PseudoPot. # 3 for Pt read from file:
     ./pseudo/Pt.pbe-spfn-kjpaw_psl.1.0.0.UPF
     MD5 check sum: 620096ebf4e6ebacc94de60fd67efcb5
     Pseudo is Projector augmented-wave + core cor, Zval = 32.0
     Generated using 'atomic' code by A. Dal Corso  v.7.2
     Shape of augmentation charge: PSQ
     Using radial grid of 1277 points,  8 beta functions with:
                l(1) =   0
                l(2) =   0
                l(3) =   1
                l(4) =   1
                l(5) =   2
                l(6) =   2
                l(7) =   3
                l(8) =   3
     Q(r) pseudized with 0 coefficients

     PseudoPot. # 4 for Pd read from file:
     ./pseudo/Pd.pbe-spn-kjpaw_psl.1.0.0.UPF
     MD5 check sum: a60571a671f2502b8a6a4569d20a6edb
     Pseudo is Projector augmented-wave + core cor, Zval = 18.0
     Generated using 'atomic' code by A. Dal Corso  v.7.2
     Shape of augmentation charge: PSQ
     Using radial grid of 1235 points,  6 beta functions with:
                l(1) =   0
                l(2) =   0
                l(3) =   1
                l(4) =   1
                l(5) =   2
                l(6) =   2
     Q(r) pseudized with 0 coefficients

     atomic species   valence    mass     pseudopotential
     Mo               14.00    95.95000     Mo( 1.00)
     S                 6.00    32.06000     S ( 1.00)
     Pt               32.00   195.08400     Pt( 1.00)
     Pd               18.00   106.42000     Pd( 1.00)

     No symmetry found

   Cartesian axes

     site n.     atom                  positions (alat units)
         1        Mo     tau(   1) = (   0.0000010   0.1443372  -0.7272732  )
         2        Mo     tau(   2) = (   0.1249995   0.0721706  -0.2424038  )
         3        S      tau(   3) = (   0.0000015   0.1443386  -0.3667807  )
         4        S      tau(   4) = (   0.1250010   0.0721682  -0.6030489  )
         5        S      tau(   5) = (   0.1250010   0.0721683  -0.8514963  )
         6        S      tau(   6) = (   0.0000015   0.1443389  -0.1180260  )
         7        Mo     tau(   7) = (   0.0000005   0.1443381   0.2424561  )
         8        Mo     tau(   8) = (   0.1251981   0.0716023   0.7276027  )
         9        S      tau(   9) = (  -0.0003031   0.1454842   0.6052312  )
        10        S      tau(  10) = (   0.1249558   0.0721599   0.3668208  )
        11        S      tau(  11) = (   0.1250088   0.0721517   0.1180857  )
        12        S      tau(  12) = (  -0.0004157   0.1382876   0.8564685  )
        13        Mo     tau(  13) = (  -0.1249989   0.3608437  -0.7272732  )
        14        Mo     tau(  14) = (   0.0000030   0.2886752  -0.2424042  )
        15        S      tau(  15) = (  -0.1249977   0.3608450  -0.3667802  )
        16        S      tau(  16) = (   0.0000012   0.2886747  -0.6030489  )
        17        S      tau(  17) = (   0.0000012   0.2886748  -0.8514963  )
        18        S      tau(  18) = (  -0.1249977   0.3608454  -0.1180274  )
        19        Mo     tau(  19) = (  -0.1249623   0.3608201   0.2425155  )
        20        Mo     tau(  20) = (  -0.0007801   0.2872696   0.7308518  )
        21        S      tau(  21) = (  -0.1240398   0.3604107   0.6055268  )
        22        S      tau(  22) = (   0.0000411   0.2886546   0.3669163  )
        23        S      tau(  23) = (   0.0000035   0.2886726   0.1180964  )
        24        S      tau(  24) = (  -0.1315418   0.3638985   0.8543850  )
        25        Mo     tau(  25) = (  -0.2499987   0.5773502  -0.7272732  )
        26        Mo     tau(  26) = (  -0.1249977   0.5051839  -0.2424055  )
        27        S      tau(  27) = (  -0.2499981   0.5773518  -0.3667809  )
        28        S      tau(  28) = (  -0.1249986   0.5051812  -0.6030489  )
        29        S      tau(  29) = (  -0.1249986   0.5051813  -0.8514963  )
        30        S      tau(  30) = (  -0.2499979   0.5773512  -0.1180266  )
        31        Mo     tau(  31) = (  -0.2499787   0.5773156   0.2425145  )
        32        Mo     tau(  32) = (  -0.1271807   0.5060660   0.7281741  )
        33        S      tau(  33) = (  -0.2502658   0.5775034   0.6017985  )
        34        S      tau(  34) = (  -0.1249543   0.5051367   0.3669386  )
        35        S      tau(  35) = (  -0.1249864   0.5051552   0.1181399  )
        36        S      tau(  36) = (  -0.2525628   0.5785576   0.8514793  )
        37        Mo     tau(  37) = (  -0.3749985   0.7938567  -0.7272732  )
        38        Mo     tau(  38) = (  -0.2500001   0.7216874  -0.2424031  )
        39        S      tau(  39) = (  -0.3749980   0.7938584  -0.3667800  )
        40        S      tau(  40) = (  -0.2499984   0.7216877  -0.6030489  )
        41        S      tau(  41) = (  -0.2499984   0.7216878  -0.8514963  )
        42        S      tau(  42) = (  -0.3749982   0.7938585  -0.1180264  )
        43        Mo     tau(  43) = (  -0.3750043   0.7938372   0.2424536  )
        44        Mo     tau(  44) = (  -0.2503619   0.7218808   0.7263407  )
        45        S      tau(  45) = (  -0.3755748   0.7941519   0.6023691  )
        46        S      tau(  46) = (  -0.2500067   0.7216811   0.3668312  )
        47        S      tau(  47) = (  -0.2499793   0.7216445   0.1181126  )
        48        S      tau(  48) = (  -0.3746959   0.7932047   0.8515893  )
        49        Mo     tau(  49) = (   0.2500010   0.1443372  -0.7272732  )
        50        Mo     tau(  50) = (   0.3750034   0.0721723  -0.2424032  )
        51        S      tau(  51) = (   0.2500017   0.1443391  -0.3667788  )
        52        S      tau(  52) = (   0.3750010   0.0721682  -0.6030489  )
        53        S      tau(  53) = (   0.3750010   0.0721683  -0.8514963  )
        54        S      tau(  54) = (   0.2500016   0.1443391  -0.1180271  )
        55        Mo     tau(  55) = (   0.2500033   0.1443124   0.2424881  )
        56        Mo     tau(  56) = (   0.3752595   0.0716472   0.7255395  )
        57        S      tau(  57) = (   0.2498544   0.1431280   0.6011361  )
        58        S      tau(  58) = (   0.3750516   0.0721435   0.3668117  )
        59        S      tau(  59) = (   0.3750079   0.0721203   0.1180977  )
        60        S      tau(  60) = (   0.2517312   0.1427646   0.8506906  )
[...]
       181        Mo     tau( 181) = (   0.3750016   0.7938567  -0.7272732  )
       182        Mo     tau( 182) = (   0.5000025   0.7216901  -0.2424039  )
       183        S      tau( 183) = (   0.3750019   0.7938578  -0.3667793  )
       184        S      tau( 184) = (   0.5000016   0.7216877  -0.6030489  )
       185        S      tau( 185) = (   0.5000016   0.7216878  -0.8514963  )
       186        S      tau( 186) = (   0.3750020   0.7938579  -0.1180272  )
       187        Mo     tau( 187) = (   0.3749951   0.7938323   0.2424893  )
       188        Mo     tau( 188) = (   0.4998599   0.7217391   0.7271366  )
       189        S      tau( 189) = (   0.3746033   0.7939741   0.6029663  )
       190        S      tau( 190) = (   0.4999946   0.7216688   0.3668260  )
       191        S      tau( 191) = (   0.4999891   0.7216628   0.1180901  )
       192        S      tau( 192) = (   0.3755955   0.7938624   0.8526444  )
       193        Pt     tau( 193) = (   0.1194898   0.4990527   0.9549993  )
       194        Pd     tau( 194) = (   0.0026419   0.2990244   0.9662205  )
       195        Pt     tau( 195) = (  -0.1271722   0.5060707   0.9755684  )

     DFT-D3 Dispersion Correction (3-body terms):
       Reference C6 values for interpolation:

[...]
   -40.7524 -40.7446 -40.7403 -40.7402 -40.7402 -40.7402 -40.7402 -40.7402
   -40.7400 -40.7399 -40.7393 -40.7393 -40.7393 -40.7393 -40.7242 -40.7199
   -40.7167 -40.7137 -40.7054 -40.7054 -40.7054 -40.7054 -40.7054 -40.7053
   -40.7053 -40.7053 -40.7045 -40.7045 -40.7045 -40.7045 -40.6933 -40.6933
   -40.6933 -40.6931 -40.6923 -40.6923 -40.6828 -40.6805 -40.6786 -40.6754
   -40.6740 -40.6739 -40.6739 -40.6739 -40.6730 -40.6730 -40.6675 -40.6570
   -40.6570 -40.6569 -40.6569 -40.6560 -40.6560 -40.6534 -40.6512 -40.6404
   -40.6266 -40.6263 -40.6263 -40.6263 -40.6261 -40.6253 -40.6253 -40.6071
   -40.6027 -40.5829 -20.3202 -20.0035 -19.9405 -19.9292 -19.8472 -19.8314
   -19.7984 -19.7306 -19.7243 -19.5991 -19.5050 -19.4992 -19.4207 -19.4069
   -19.3815 -19.3076 -19.3016 -19.1886 -19.0849 -18.8726 -18.8613 -18.8454
   -18.7948 -18.7942 -18.7929 -18.7869 -18.7802 -18.7531 -18.7345 -18.7261
   -18.7197 -18.7135 -18.6843 -18.6602 -18.6572 -18.6297 -18.6282 -18.6190
   -18.6140 -18.6031 -18.5963 -18.5656 -18.5608 -18.5481 -18.5406 -18.5114
   -18.4917 -18.4849 -18.4819 -18.4760 -18.4622 -18.4529 -18.4243 -18.4085
   -18.4029 -18.3886 -18.3380 -18.3360 -18.3219 -18.3100 -18.2818 -18.2769
   -18.2652 -18.2410 -18.2372 -18.2113 -18.2021 -18.1862 -18.1738 -18.1707
   -18.1687 -18.1679 -18.1605 -18.1461 -18.1439 -18.1424 -18.1401 -18.1369
   -18.1348 -18.1273 -18.1235 -18.1189 -18.1117 -18.1020 -18.0844 -18.0797
   -18.0764 -18.0724 -18.0713 -18.0682 -18.0676 -18.0626 -18.0597 -18.0497
   -18.0309 -18.0142 -18.0098 -18.0057 -18.0017 -17.9960 -17.9675 -17.9611
   -17.9572 -17.9506 -17.9379 -17.9310 -17.9183 -17.9140 -17.9094 -17.9089
   -17.8897 -17.8886 -17.8882 -17.8880 -17.8872 -17.8868 -17.8747 -17.8741
   -17.8550 -17.8546 -17.8304 -17.8301 -17.8113 -17.8104 -17.7966 -17.7958
   -17.7889 -17.7887 -12.4313 -12.2503 -12.0367 -11.8962 -11.8664 -11.8229
   -11.7749 -11.7092 -11.6589 -11.5968 -11.5797 -11.5757 -11.5698 -11.5663
   -11.5524 -11.5354 -11.5125 -11.5047 -11.4784 -11.4645 -11.4567 -11.4413
   -11.4261 -11.4221 -11.4048 -11.3861 -11.3843 -11.3668 -11.3529 -11.3432
   -11.3394 -11.3338 -11.3323 -11.3251 -11.3217 -11.2807 -11.2756 -11.2707
   -11.2685 -11.2613 -11.2441 -11.2407 -11.2337 -11.2187 -11.2174 -11.2118
   -11.2092 -11.1926 -11.1806 -11.1633 -11.1528 -11.1455 -11.0996 -11.0931
   -11.0569 -11.0471 -11.0332 -11.0198 -11.0114 -10.9989 -10.9893 -10.9751
   -10.9593 -10.9431 -10.9161 -10.9114 -10.9063 -10.8988 -10.8945 -10.8904
[...]
    -3.4523  -3.4252  -3.4205  -3.4196  -3.4173  -3.4133  -3.4072  -3.4065
    -3.3834  -3.3753  -3.3714  -3.3557  -3.3507  -3.3492  -3.3476  -3.3435
    -3.3417  -3.3405  -3.3249  -3.3149  -3.3117  -3.3108  -3.3039  -3.2964
    -3.2888  -3.2870  -3.2792  -3.2783  -3.2774  -3.2672  -3.2553  -3.2533
    -3.2459  -3.2388  -3.2359  -3.2296  -3.2295  -3.2216  -3.2112  -3.1969
    -3.1775  -3.1697  -3.1597  -3.1533  -3.1436  -3.1306  -3.1264  -3.1076
    -3.0944  -3.0914  -3.0903  -3.0887  -3.0882  -3.0876  -3.0825  -3.0740
    -3.0735  -3.0723  -3.0692  -3.0668  -3.0544  -3.0533  -3.0508  -3.0485
    -3.0455  -3.0385  -3.0350  -3.0335  -3.0286  -3.0172  -3.0148  -3.0126
    -3.0083  -2.9999  -2.9970  -2.9948  -2.9923  -2.9732  -2.9676  -2.9614
    -2.9536  -2.9473  -2.9449  -2.9330  -2.9203  -2.8760  -2.8644  -2.8568
    -2.8546  -2.8289  -2.8194  -2.7977  -2.7852  -2.7050  -2.6954  -2.6784
    -2.6618  -2.6530  -2.6395  -2.6381  -2.6232  -2.6161  -2.6108  -2.6032
    -2.5955  -2.5938  -2.5923  -2.5649  -2.5513  -2.5154  -2.4866  -2.4792
    -2.4690  -2.4667  -2.4563  -2.4534  -2.4488  -2.4435  -2.4184  -2.4151

     the Fermi energy is    -4.8288 ev

!    total energy              =  -35654.95852927 Ry
     total all-electron energy =   -704233.504347 Ry
     estimated scf accuracy    <          4.9E-09 Ry
     smearing contrib. (-TS)   =      -0.00000091 Ry
     internal energy E=F+TS    =  -35654.95852836 Ry

     The total energy is F=E-TS. E is the sum of the following terms:
     one-electron contribution = 1222370.45570455 Ry
     hartree contribution      = -611404.87529061 Ry
     xc contribution           =   -2086.46819799 Ry
     ewald contribution        = -622634.72883551 Ry
     DFT-D3 Dispersion         =      -5.47532972 Ry
     one-center paw contrib.   =  -21893.86657908 Ry

     convergence has been achieved in   8 iterations

     negative rho (up, down):  9.061E-04 0.000E+00

     Forces acting on atoms (cartesian axes, Ry/au):

     atom    1 type  1   force =    -0.00000058   -0.00000175    0.00068834
     atom    2 type  1   force =     0.00002614   -0.00000961    0.00000454
     atom    3 type  2   force =     0.00000008   -0.00000151    0.00000185
     atom    4 type  2   force =    -0.00000175   -0.00000121    0.00161539
     atom    5 type  2   force =    -0.00000202   -0.00000179   -0.00235990
     atom    6 type  2   force =     0.00000036    0.00000259    0.00002280
     atom    7 type  1   force =    -0.00000720    0.00000887    0.00001111
     atom    8 type  1   force =     0.00000149   -0.00005168   -0.00008969
     atom    9 type  2   force =    -0.00002981    0.00016088    0.00000394
     atom   10 type  2   force =    -0.00001124   -0.00000655    0.00002003
     atom   11 type  2   force =    -0.00000066    0.00000024    0.00002078
     atom   12 type  2   force =    -0.00000308   -0.00005017   -0.00022670
     atom   13 type  1   force =    -0.00000017   -0.00000181    0.00068816
     atom   14 type  1   force =    -0.00001145    0.00001356    0.00000371
     atom   15 type  2   force =     0.00000219   -0.00000136    0.00000411
     atom   16 type  2   force =    -0.00000156   -0.00000124    0.00161543
     atom   17 type  2   force =    -0.00000189   -0.00000174   -0.00236006
     atom   18 type  2   force =     0.00000157    0.00000083    0.00001540
     atom   19 type  1   force =     0.00000143   -0.00000044    0.00002069
     atom   20 type  1   force =     0.00001820    0.00010472   -0.00010270
     atom   21 type  2   force =    -0.00015623   -0.00019248   -0.00029330
     atom   22 type  2   force =    -0.00001080    0.00000086    0.00002897
     atom   23 type  2   force =    -0.00000428    0.00000719    0.00002817
     atom   24 type  2   force =     0.00007344    0.00005091    0.00029850
     atom   25 type  1   force =     0.00000059   -0.00000221    0.00068826
     atom   26 type  1   force =     0.00000309   -0.00001146    0.00001477
     atom   27 type  2   force =    -0.00000080    0.00000073    0.00000165
     atom   28 type  2   force =    -0.00000158   -0.00000124    0.00161551
     atom   29 type  2   force =    -0.00000182   -0.00000180   -0.00236003
     atom   30 type  2   force =     0.00000563   -0.00000866    0.00002423
     atom   31 type  1   force =     0.00000323   -0.00000435    0.00002174
     atom   32 type  1   force =     0.00016345   -0.00012696    0.00032451
     atom   33 type  2   force =    -0.00024275    0.00013352   -0.00006906
     atom   34 type  2   force =     0.00000631   -0.00000310    0.00000550
     atom   35 type  2   force =     0.00000002    0.00000077    0.00002656
     atom   36 type  2   force =     0.00046626   -0.00026834    0.00013797
     atom   37 type  1   force =     0.00000035   -0.00000228    0.00068922
     atom   38 type  1   force =     0.00002648    0.00002194   -0.00000199
     atom   39 type  2   force =    -0.00000164   -0.00000039    0.00000446
     atom   40 type  2   force =    -0.00000156   -0.00000120    0.00161537
     atom   41 type  2   force =    -0.00000188   -0.00000178   -0.00235987
     atom   42 type  2   force =    -0.00000176   -0.00000175    0.00000985
     atom   43 type  1   force =     0.00000026   -0.00000338   -0.00000307
     atom   44 type  1   force =     0.00002823   -0.00015476    0.00020366
     atom   45 type  2   force =     0.00012344   -0.00010437    0.00000210
     atom   46 type  2   force =    -0.00000243   -0.00000372    0.00000476
     atom   47 type  2   force =     0.00000462   -0.00001020    0.00001655
     atom   48 type  2   force =    -0.00012471    0.00001185    0.00003766
     atom   49 type  1   force =    -0.00000021   -0.00000198    0.00068831
     atom   50 type  1   force =    -0.00002711   -0.00003096    0.00000031
     atom   51 type  2   force =    -0.00000171    0.00000089    0.00000485
     atom   52 type  2   force =    -0.00000182   -0.00000133    0.00161556
     atom   53 type  2   force =    -0.00000204   -0.00000181   -0.00235980
     atom   54 type  2   force =    -0.00000270    0.00000441    0.00001055
     atom   55 type  1   force =    -0.00000730   -0.00000089    0.00001632
     atom   56 type  1   force =     0.00001178   -0.00007495   -0.00007650
     atom   57 type  2   force =     0.00003235    0.00021066    0.00007128
     atom   58 type  2   force =     0.00000266   -0.00001343    0.00001899
     atom   59 type  2   force =    -0.00000418    0.00000019    0.00001899
     atom   60 type  2   force =    -0.00000983   -0.00002826   -0.00008832
[...]
     atom  181 type  1   force =    -0.00000039   -0.00000230    0.00068927
     atom  182 type  1   force =    -0.00001047   -0.00001226    0.00000102
     atom  183 type  2   force =    -0.00000353   -0.00000301    0.00000432
     atom  184 type  2   force =    -0.00000181   -0.00000130    0.00161540
     atom  185 type  2   force =    -0.00000199   -0.00000181   -0.00235993
     atom  186 type  2   force =    -0.00000267   -0.00000406    0.00000966
     atom  187 type  1   force =     0.00000037   -0.00000101    0.00001386
     atom  188 type  1   force =    -0.00006972    0.00003320   -0.00005721
     atom  189 type  2   force =    -0.00010427    0.00000936   -0.00005095
     atom  190 type  2   force =     0.00000916   -0.00000659    0.00001923
     atom  191 type  2   force =    -0.00000610    0.00000081    0.00001168
     atom  192 type  2   force =    -0.00008425    0.00003315   -0.00004409
     atom  193 type  3   force =    -0.00017682    0.00098799    0.00034249
     atom  194 type  4   force =     0.00004087   -0.00019203   -0.00003280
     atom  195 type  3   force =     0.00038672   -0.00013373   -0.00031373

     Total force =     0.002050     Total SCF correction =     0.001259
     SCF correction compared to forces is large: reduce conv_thr to get better values
     Energy error            =      2.4E-06 Ry
     Gradient error          =      9.9E-04 Ry/Bohr

     bfgs converged in  22 scf cycles and  21 bfgs steps
     (criteria: energy <  1.0E-04 Ry, force <  1.0E-03 Ry/Bohr)

     End of BFGS Geometry Optimization

     Final energy             =  -35654.9585292724 Ry

     File ./outdir/pwscf.bfgs deleted, as requested
Begin final coordinates

ATOMIC_POSITIONS (angstrom)
Mo               0.0000119917        1.8193638619       -9.1672481230    0   0   0
Mo               1.5756136568        0.9097075315       -3.0554901653    0   0   0
S                0.0000188998        1.8193822938       -4.6232556019    0   0   0
S                1.5756321638        0.9096773839       -7.6014065489    0   0   0
S                1.5756326175        0.9096785128      -10.7330757790    0   0   0
S                0.0000189190        1.8193860094       -1.4877129945    0   0   0
Mo               0.0001430736        1.8193186791        3.0571379705
Mo               1.5770266383        0.9000167452        9.1770455959
S               -0.0007059539        1.8247201091        7.6278439233
S                1.5751777825        0.9092362335        4.6248362513
S                1.5756868063        0.9095237652        1.4893207783
S               -0.0009452809        1.7244244139       10.8092902653
Mo              -1.5756053507        4.5484193819       -9.1672481230    0   0   0
Mo               0.0000378379        3.6387394919       -3.0554952701    0   0   0
S               -1.5755913433        4.5484363582       -4.6232494962    0   0   0
S                0.0000148214        3.6387329039       -7.6014065489    0   0   0
S                0.0000152751        3.6387340328      -10.7330757790    0   0   0
S               -1.5755906502        4.5484413613       -1.4877305502    0   0   0
Mo              -1.5752195354        4.5482918148        3.0582615225
Mo              -0.0013474157        3.6037480024        9.2158515003
S               -1.5650167337        4.5551362768        7.6576720526
S                0.0001796066        3.6382760466        4.6264936229
S                0.0000835623        3.6388856098        1.4899852764
S               -1.6833362081        4.4628617454       10.7640760456
Mo              -3.1512226931        7.2774749019       -9.1672481230    0   0   0
Mo              -1.5755910988        6.3678216792       -3.0555115988    0   0   0
S               -3.1512162438        7.2774954350       -4.6232578178    0   0   0
S               -1.5756025210        6.3677884239       -7.6014065489    0   0   0
S               -1.5756020673        6.3677895528      -10.7330757790    0   0   0
S               -3.1512127704        7.2774877076       -1.4877200710    0   0   0
Mo              -3.1508567067        7.2769366542        3.0571369039
Mo              -1.6043737821        6.3820394975        9.2077163070
S               -3.1442923565        7.2715233794        7.6324604528
S               -1.5757214103        6.3675058301        4.6267672357
S               -1.5750254559        6.3672229972        1.4900651784
S               -3.2420545192        7.3273310732       10.8331986602
Mo              -4.7268400355       10.0065304219       -9.1672481230    0   0   0
Mo              -3.1512405618        9.0968403586       -3.0554816746    0   0   0
S               -4.7268341792       10.0065523623       -4.6232463762    0   0   0
S               -3.1512198634        9.0968439439       -7.6014065489    0   0   0
S               -3.1512194097        9.0968450728      -10.7330757790    0   0   0
S               -4.7268370797       10.0065537885       -1.4877176751    0   0   0
Mo              -4.7268635518       10.0061207584        3.0569450115
Mo              -3.1581055093        9.1033504434        9.1785822918
S               -4.7313843840       10.0027155741        7.6052923803
S               -3.1515383764        9.0959849756        4.6247429334
S               -3.1509914820        9.0963789155        1.4893332528
S               -4.7267526586       10.0068955130       10.7512971435
Mo               3.1512517547        1.8193638619       -9.1672481230    0   0   0
Mo               4.7269020221        0.9097289540       -3.0554823951    0   0   0
S                3.1512612351        1.8193882564       -4.6232320683    0   0   0
S                4.7268719268        0.9096773839       -7.6014065489    0   0   0
S                4.7268723805        0.9096785128      -10.7330757790    0   0   0
S                3.1512592485        1.8193890201       -1.4877261251    0   0   0
Mo               3.1510641605        1.8192103811        3.0573745895
Mo               4.7230903803        0.9114766549        9.1405896210
S                3.1398732480        1.8083422568        7.5768026978
S                4.7272823227        0.9097696618        4.6240266979
S                4.7265145811        0.9091275402        1.4891819754
S                3.1700603489        1.8059514215       10.7261241324
[...]
Mo               4.7268792535       10.0065304219       -9.1672481230    0   0   0
Mo               6.3025111524        9.0968738021       -3.0554915260    0   0   0
S                4.7268840634       10.0065452125       -4.6232380477    0   0   0
S                6.3024994256        9.0968439439       -7.6014065489    0   0   0
S                6.3024998793        9.0968450728      -10.7330757790    0   0   0
S                4.7268847312       10.0065459141       -1.4877283294    0   0   0
Mo               4.7271052713       10.0060843322        3.0568154541
Mo               6.3022791779        9.0954047443        9.1806147849
S                4.7296764737       10.0014412435        7.6064774784
S                6.3025202114        9.0965281147        4.6246440755
S                6.3026591684        9.0964125017        1.4889971042
S                4.7274010670       10.0068113637       10.7524931171
Pt               1.4508843654        6.3227024284       12.0844022341
Pd              -0.0029237483        3.7279738278       12.1847997430
Pt              -1.4554290125        6.3259159415       12.0800884617
End final coordinates

     Writing all to output data dir ./outdir/pwscf.save/ :
     XML data file, charge density, pseudopotentials, collected wavefunctions

     General routines

     Parallel routines

   This run was terminated on:  22:40: 8  17Apr2024

   JOB DONE.