     Program PWSCF v.7.2 starts on 29Aug2023 at  3:27:40

     Waiting for input...
     Reading input from standard input
Warning: card &CELL ignored
Warning: card / ignored

     Current dimensions of program PWSCF are:
     Max number of different atomic species (ntypx) = 10
     Max number of k-points (npk) =  40000
     Max angular momentum in pseudopotentials (lmaxx) =  4
     file Mo.pbe-spn-kjpaw_psl.1.0.0.UPF: wavefunction(s)  4S 4D renormalized
     file S.pbe-n-kjpaw_psl.1.0.0.UPF: wavefunction(s)  3S 3P renormalized
     file Pd.pbe-spn-kjpaw_psl.1.0.0.UPF: wavefunction(s)  4S 5S 4D renormalized
     file H.pbe-kjpaw_psl.1.0.0.UPF: wavefunction(s)  1S renormalized

     R & G space division:  proc/nbgrp/npool/nimage =      36
     Subspace diagonalization in iterative solution of the eigenvalue problem:
     one sub-group per band group will be used

     Using Slab Decomposition

     bravais-lattice index     =            0
     lattice parameter (alat)  =      23.8395  a.u.
     unit-cell volume          =   28182.8498 (a.u.)^3
     number of atoms/cell      =          146
     number of atomic types    =            4
     number of electrons       =      1267.00
     number of Kohn-Sham states=          761
     kinetic-energy cutoff     =      77.0000  Ry
     charge density cutoff     =     539.0000  Ry
     scf convergence threshold =      1.0E-06
     mixing beta               =       0.2000
     number of iterations used =            8  plain     mixing
     energy convergence thresh.=      1.0E-04
     force convergence thresh. =      1.0E-03
     Exchange-correlation= SLA  PW   PBX  PBC
                           (   1   4   3   4   0   0   0)
     nstep                     =         1000

     Effective Screening Medium Method
     Boundary Conditions: Vacuum-Slab-Vacuum
     total charge in unit cell        =   0.0000
     grid points for fit at edges     =        4

     celldm(1)=  23.839504  celldm(2)=   0.000000  celldm(3)=   0.000000
     celldm(4)=   0.000000  celldm(5)=   0.000000  celldm(6)=   0.000000

     crystal axes: (cart. coord. in units of alat)
               a(1) = (   1.000000   0.000000   0.000000 )
               a(2) = (  -0.500001   0.866026   0.000000 )
               a(3) = (   0.000000   0.000000   2.401941 )

     reciprocal axes: (cart. coord. in units 2 pi/alat)
               b(1) = (  1.000000  0.577351  0.000000 )
               b(2) = (  0.000000  1.154700  0.000000 )
               b(3) = (  0.000000  0.000000  0.416330 )

     PseudoPot. # 1 for Mo read from file:
     ./pseudo/Mo.pbe-spn-kjpaw_psl.1.0.0.UPF
     MD5 check sum: 317bf72632116215fd98f72de1686f13
     Pseudo is Projector augmented-wave + core cor, Zval = 14.0
     Generated using 'atomic' code by A. Dal Corso  v.7.2
     Shape of augmentation charge: PSQ
     Using radial grid of 1229 points,  6 beta functions with:
                l(1) =   0
                l(2) =   0
                l(3) =   1
                l(4) =   1
                l(5) =   2
                l(6) =   2
     Q(r) pseudized with 0 coefficients

     PseudoPot. # 2 for S  read from file:
     ./pseudo/S.pbe-n-kjpaw_psl.1.0.0.UPF
     MD5 check sum: 8b7b5302570d38d5e87fed6a1065abda
     Pseudo is Projector augmented-wave + core cor, Zval =  6.0
     Generated using 'atomic' code by A. Dal Corso  v.7.2
     Shape of augmentation charge: PSQ
     Using radial grid of 1151 points,  6 beta functions with:
                l(1) =   0
                l(2) =   0
                l(3) =   1
                l(4) =   1
                l(5) =   2
                l(6) =   2
     Q(r) pseudized with 0 coefficients

     PseudoPot. # 3 for Pd read from file:
     ./pseudo/Pd.pbe-spn-kjpaw_psl.1.0.0.UPF
     MD5 check sum: a60571a671f2502b8a6a4569d20a6edb
     Pseudo is Projector augmented-wave + core cor, Zval = 18.0
     Generated using 'atomic' code by A. Dal Corso  v.7.2
     Shape of augmentation charge: PSQ
     Using radial grid of 1235 points,  6 beta functions with:
                l(1) =   0
                l(2) =   0
                l(3) =   1
                l(4) =   1
                l(5) =   2
                l(6) =   2
     Q(r) pseudized with 0 coefficients

     PseudoPot. # 4 for H  read from file:
     ./pseudo/H.pbe-kjpaw_psl.1.0.0.UPF
     MD5 check sum: b3cb3c48ee3b58cc53e4d592112d0ca6
     Pseudo is Projector augmented-wave, Zval =  1.0
     Generated using 'atomic' code by A. Dal Corso  v.7.2
     Shape of augmentation charge: PSQ
     Using radial grid of  929 points,  2 beta functions with:
                l(1) =   0
                l(2) =   0
     Q(r) pseudized with 0 coefficients

     atomic species   valence    mass     pseudopotential
        Mo            14.00    95.95000     Mo( 1.00)
        S              6.00    32.06000     S ( 1.00)
        Pd            18.00   106.42000     Pd( 1.00)
        H              1.00     1.00800     H ( 1.00)

     No symmetry found

   Cartesian axes

     site n.     atom                  positions (alat units)
         1           Mo  tau(   1) = (   0.1244805   0.2154429   0.4826124  )
         2           Mo  tau(   2) = (   0.1250004   0.0721694  -0.4825273  )
         3           Mo  tau(   3) = (   0.0000154   0.1443583  -0.0000534  )
         4           S   tau(   4) = (   0.0000004   0.0000006  -0.6064556  )
         5           S   tau(   5) = (   0.1249822   0.0722030  -0.1241916  )
         6           S   tau(   6) = (   0.0001873   0.1444894   0.3573292  )
         7           S   tau(   7) = (   0.0000004   0.0000005  -0.3584711  )
         8           S   tau(   8) = (   0.1250220   0.0721432   0.1241096  )
         9           S   tau(   9) = (  -0.0009222   0.1433430   0.6062350  )
        10           Mo  tau(  10) = (  -0.0011812   0.4330952   0.4826123  )
        11           Mo  tau(  11) = (   0.0000001   0.2886759  -0.4825273  )
        12           Mo  tau(  12) = (  -0.1249761   0.3608493  -0.0000533  )
        13           S   tau(  13) = (  -0.1249999   0.2165071  -0.6064556  )
        14           S   tau(  14) = (   0.0000232   0.2886904  -0.1241345  )
        15           S   tau(  15) = (  -0.1247753   0.3609305   0.3573291  )
        16           S   tau(  16) = (  -0.1249998   0.2165070  -0.3584711  )
        17           S   tau(  17) = (   0.0000901   0.2887289   0.1242236  )
        18           S   tau(  18) = (  -0.1263226   0.3605428   0.6062351  )
        19           Mo  tau(  19) = (  -0.1251400   0.6495983   0.4819363  )
        20           Mo  tau(  20) = (  -0.1250002   0.5051824  -0.4825273  )
        21           Mo  tau(  21) = (  -0.2500026   0.5773383  -0.0001491  )
        22           S   tau(  22) = (  -0.2500002   0.4330136  -0.6064556  )
        23           S   tau(  23) = (  -0.1249812   0.5051509  -0.1241919  )
        24           S   tau(  24) = (  -0.2500015   0.5775831   0.3575295  )
        25           S   tau(  25) = (  -0.2500001   0.4330135  -0.3584711  )
        26           S   tau(  26) = (  -0.1250129   0.5052153   0.1241101  )
        27           S   tau(  27) = (  -0.2500018   0.5771934   0.6060379  )
        28           Mo  tau(  28) = (   0.2499987  -0.0001601   0.4819365  )
        29           Mo  tau(  29) = (  -0.2500004   0.7216889  -0.4825273  )
        30           Mo  tau(  30) = (  -0.3750135   0.7938631  -0.0001491  )
        31           S   tau(  31) = (  -0.3750004   0.6495201  -0.6064556  )
        32           S   tau(  32) = (  -0.2500026   0.7216883  -0.1242347  )
        33           S   tau(  33) = (  -0.3747997   0.7937400   0.3575295  )
        34           S   tau(  34) = (  -0.3750004   0.6495200  -0.3584711  )
        35           S   tau(  35) = (  -0.2500029   0.7216883   0.1240299  )
        36           S   tau(  36) = (  -0.3751376   0.7939346   0.6060379  )
        37           Mo  tau(  37) = (   0.3755166   0.2154425   0.4826119  )
        38           Mo  tau(  38) = (   0.3750004   0.0721694  -0.4825273  )
        39           Mo  tau(  39) = (   0.2499990   0.1443474  -0.0000968  )
        40           S   tau(  40) = (   0.2500004   0.0000006  -0.6064556  )
        41           S   tau(  41) = (   0.3750152   0.0722028  -0.1241921  )
        42           S   tau(  42) = (   0.2499983   0.1443201   0.3580593  )
        43           S   tau(  43) = (   0.2500004   0.0000005  -0.3584711  )
        44           S   tau(  44) = (   0.3749754   0.0721432   0.1241106  )
        45           S   tau(  45) = (   0.2499987   0.1437775   0.6065499  )
        46           Mo  tau(  46) = (   0.2499984   0.4330123   0.4872880  )
        47           Mo  tau(  47) = (   0.2500001   0.2886759  -0.4825273  )
        48           Mo  tau(  48) = (   0.1250277   0.3608616  -0.0000572  )
        49           S   tau(  49) = (   0.1250001   0.2165071  -0.6064556  )
        50           S   tau(  50) = (   0.2499987   0.2886898  -0.1241693  )
        51           S   tau(  51) = (   0.1266397   0.3617911   0.3615924  )
        52           S   tau(  52) = (   0.1250002   0.2165070  -0.3584711  )
        53           S   tau(  53) = (   0.2499988   0.2886671   0.1241958  )
        54           S   tau(  54) = (   0.1173054   0.3564020   0.6108885  )
        55           Mo  tau(  55) = (   0.1243363   0.6504991   0.4826116  )
        56           Mo  tau(  56) = (   0.1249998   0.5051824  -0.4825273  )
        57           Mo  tau(  57) = (   0.0000060   0.5773464  -0.0000969  )
        58           S   tau(  58) = (  -0.0000002   0.4330136  -0.6064556  )
        59           S   tau(  59) = (   0.1250101   0.5051751  -0.1241696  )
        60           S   tau(  60) = (  -0.0000165   0.5773581   0.3580590  )
[...]
       132           S   tau( 132) = (   0.5000130   0.5773585   0.3580587  )
       133           S   tau( 133) = (   0.4999999   0.4330135  -0.3584711  )
       134           S   tau( 134) = (   0.6250081   0.5052147   0.1241104  )
       135           S   tau( 135) = (   0.5004826   0.5776298   0.6065487  )
       136           Mo  tau( 136) = (  -0.0000706   0.0000401   0.4813070  )
       137           Mo  tau( 137) = (   0.4999996   0.7216889  -0.4825273  )
       138           Mo  tau( 138) = (   0.3749881   0.7938314  -0.0000535  )
       139           S   tau( 139) = (   0.3749996   0.6495201  -0.6064556  )
       140           S   tau( 140) = (   0.4999594   0.7216844  -0.1241918  )
       141           S   tau( 141) = (   0.3749610   0.7936184   0.3573285  )
       142           S   tau( 142) = (   0.3749996   0.6495200  -0.3584711  )
       143           S   tau( 143) = (   0.5000310   0.7216802   0.1241101  )
       144           S   tau( 144) = (   0.3753979   0.7951517   0.6062337  )
       145           Pd  tau( 145) = (   0.2499985   0.4330123   0.7148096  )
       146           H   tau( 146) = (  -0.0009512   0.1433178   0.7172231  )

     DFT-D3 Dispersion Correction (3-body terms):
       Reference C6 values for interpolation:

         atom   Coordination number   C6
         H          0.912             6.05
         H          0.000            15.18
         S          0.000           268.01
[...]
     atom   12 type  1   force =    -0.00001085    0.00001450   -0.00004510
     atom   13 type  2   force =     0.00000000    0.00000000    0.00000000
     atom   14 type  2   force =     0.00000218    0.00000470   -0.00001630
     atom   15 type  2   force =    -0.00000541    0.00001143   -0.00001168
     atom   16 type  2   force =     0.00000000    0.00000000    0.00000000
     atom   17 type  2   force =     0.00000312    0.00000553   -0.00000634
     atom   18 type  2   force =    -0.00000034    0.00000982   -0.00000123
     atom   19 type  1   force =     0.00000380    0.00000788   -0.00003312
     atom   20 type  1   force =     0.00000000    0.00000000    0.00000000
     atom   21 type  1   force =    -0.00000907   -0.00000094   -0.00003594
     atom   22 type  2   force =     0.00000000    0.00000000    0.00000000
     atom   23 type  2   force =    -0.00000237    0.00000349   -0.00000939
     atom   24 type  2   force =    -0.00000185    0.00000199   -0.00000783
     atom   25 type  2   force =     0.00000000    0.00000000    0.00000000
     atom   26 type  2   force =     0.00000006    0.00000699   -0.00000536
     atom   27 type  2   force =    -0.00000389    0.00000118   -0.00001412
     atom   28 type  1   force =     0.00002527   -0.00001412   -0.00002841
     atom   29 type  1   force =     0.00000000    0.00000000    0.00000000
     atom   30 type  1   force =     0.00000974   -0.00001500   -0.00003571
     atom   31 type  2   force =     0.00000000    0.00000000    0.00000000
     atom   32 type  2   force =     0.00000071   -0.00000296   -0.00000699
     atom   33 type  2   force =     0.00000827   -0.00001387   -0.00001180
     atom   34 type  2   force =     0.00000000    0.00000000    0.00000000
     atom   35 type  2   force =     0.00000483   -0.00000218   -0.00000479
     atom   36 type  2   force =     0.00000857   -0.00000946   -0.00000212
     atom   37 type  1   force =     0.00000198    0.00000895   -0.00003097
     atom   38 type  1   force =     0.00000000    0.00000000    0.00000000
     atom   39 type  1   force =     0.00001703    0.00000526   -0.00003567
     atom   40 type  2   force =     0.00000000    0.00000000    0.00000000
     atom   41 type  2   force =     0.00000141    0.00000094   -0.00000724
     atom   42 type  2   force =     0.00001418    0.00000276   -0.00001155
     atom   43 type  2   force =     0.00000000    0.00000000    0.00000000
     atom   44 type  2   force =     0.00000287   -0.00000165   -0.00000383
     atom   45 type  2   force =     0.00000944    0.00000512   -0.00000189
     atom   46 type  1   force =    -0.00000402   -0.00000476   -0.00002346
     atom   47 type  1   force =     0.00000000    0.00000000    0.00000000
     atom   48 type  1   force =     0.00001880    0.00001329   -0.00003803
     atom   49 type  2   force =     0.00000000    0.00000000    0.00000000
     atom   50 type  2   force =     0.00000291    0.00000163   -0.00000429
     atom   51 type  2   force =     0.00001487    0.00001430   -0.00000683
     atom   52 type  2   force =     0.00000000    0.00000000    0.00000000
     atom   53 type  2   force =     0.00000707    0.00000409   -0.00000470
     atom   54 type  2   force =     0.00001281    0.00001280   -0.00000580
     atom   55 type  1   force =     0.00000330    0.00000099   -0.00003179
     atom   56 type  1   force =     0.00000000    0.00000000    0.00000000
     atom   57 type  1   force =     0.00000367    0.00000649   -0.00003689
     atom   58 type  2   force =     0.00000000    0.00000000    0.00000000
     atom   59 type  2   force =     0.00000235    0.00000108   -0.00000814
     atom   60 type  2   force =     0.00000313    0.00000635   -0.00001194
[...]
     atom  132 type  2   force =     0.00000002   -0.00000736   -0.00000611
     atom  133 type  2   force =     0.00000000    0.00000000    0.00000000
     atom  134 type  2   force =    -0.00000152   -0.00000099   -0.00000726
     atom  135 type  2   force =     0.00000092   -0.00000474   -0.00001687
     atom  136 type  1   force =     0.00000599   -0.00001560   -0.00006669
     atom  137 type  1   force =     0.00000000    0.00000000    0.00000000
     atom  138 type  1   force =    -0.00000269   -0.00001880   -0.00003667
     atom  139 type  2   force =     0.00000000    0.00000000    0.00000000
     atom  140 type  2   force =     0.00000201   -0.00000495   -0.00000748
     atom  141 type  2   force =    -0.00000725   -0.00001308   -0.00001345
     atom  142 type  2   force =     0.00000000    0.00000000    0.00000000
     atom  143 type  2   force =     0.00000033   -0.00000815   -0.00000336
     atom  144 type  2   force =    -0.00000845   -0.00000991   -0.00000067
     atom  145 type  3   force =    -0.00003902   -0.00001578   -0.00002871
     atom  146 type  4   force =     0.00000044    0.00000021   -0.00000023

     DFT-D3 dispersion contribution to forces:
     atom    1 type  1   force =     0.00005868    0.00017484   -0.00216652
     atom    2 type  1   force =    -0.00000022    0.00000003    0.00260547
     atom    3 type  1   force =    -0.00000724   -0.00000760   -0.00002319
     atom    4 type  2   force =     0.00000002    0.00000004    0.00441182
     atom    5 type  2   force =     0.00000152   -0.00000152   -0.00004610
     atom    6 type  2   force =    -0.00000823    0.00000432   -0.00013326
     atom    7 type  2   force =     0.00000055    0.00000017    0.00023548
     atom    8 type  2   force =    -0.00000198   -0.00002003    0.00008363
     atom    9 type  2   force =     0.00017811    0.00020914   -0.00429729
     atom   10 type  1   force =     0.00025377   -0.00005813   -0.00228237
     atom   11 type  1   force =     0.00000022   -0.00000040    0.00260507
     atom   12 type  1   force =    -0.00000968   -0.00000633   -0.00002604
     atom   13 type  2   force =     0.00000005   -0.00000001    0.00441173
     atom   14 type  2   force =     0.00000005    0.00000031   -0.00004813
     atom   15 type  2   force =     0.00000025   -0.00000903   -0.00014238
     atom   16 type  2   force =     0.00000088   -0.00000008    0.00023565
     atom   17 type  2   force =    -0.00001053   -0.00000595    0.00009154
     atom   18 type  2   force =     0.00034642   -0.00010470   -0.00424527
     atom   19 type  1   force =     0.00009773   -0.00005207   -0.00253597
     atom   20 type  1   force =    -0.00000002    0.00000006    0.00260439
     atom   21 type  1   force =    -0.00000153   -0.00000007   -0.00001715
     atom   22 type  2   force =    -0.00000001   -0.00000002    0.00441166
     atom   23 type  2   force =    -0.00000114    0.00000078   -0.00004817
     atom   24 type  2   force =    -0.00000615   -0.00000207   -0.00019123
     atom   25 type  2   force =     0.00000011    0.00000022    0.00023507
     atom   26 type  2   force =    -0.00002208    0.00000543    0.00008622
     atom   27 type  2   force =    -0.00000772   -0.00002955   -0.00439373
     atom   28 type  1   force =    -0.00005422    0.00013959   -0.00249855
     atom   29 type  1   force =    -0.00000020    0.00000017    0.00260475
     atom   30 type  1   force =    -0.00000228    0.00000203   -0.00001861
     atom   31 type  2   force =     0.00000003    0.00000004    0.00441179
     atom   32 type  2   force =    -0.00000117    0.00000001   -0.00004684
     atom   33 type  2   force =     0.00000485   -0.00000042   -0.00018796
     atom   34 type  2   force =    -0.00000019    0.00000048    0.00023537
     atom   35 type  2   force =    -0.00000384   -0.00000144    0.00009353
     atom   36 type  2   force =    -0.00012353    0.00015076   -0.00432835
     atom   37 type  1   force =    -0.00013885    0.00022521   -0.00231356
     atom   38 type  1   force =    -0.00000045   -0.00000008    0.00260446
     atom   39 type  1   force =    -0.00000317   -0.00001188   -0.00003780
     atom   40 type  2   force =    -0.00000002   -0.00000006    0.00441183
     atom   41 type  2   force =    -0.00000167   -0.00000034   -0.00004811
     atom   42 type  2   force =    -0.00000078    0.00002437   -0.00009960
     atom   43 type  2   force =    -0.00000069    0.00000027    0.00023555
     atom   44 type  2   force =     0.00000299   -0.00001528    0.00008661
     atom   45 type  2   force =    -0.00017091    0.00043352   -0.00416249
     atom   46 type  1   force =     0.00000967   -0.00000991   -0.00717383
     atom   47 type  1   force =    -0.00000027   -0.00000018    0.00260484
     atom   48 type  1   force =    -0.00000977   -0.00000895   -0.00005663
     atom   49 type  2   force =    -0.00000005   -0.00000003    0.00441174
     atom   50 type  2   force =    -0.00000080   -0.00000178   -0.00005248
     atom   51 type  2   force =     0.00003622    0.00002118    0.00014253
     atom   52 type  2   force =    -0.00000018   -0.00000018    0.00023570
     atom   53 type  2   force =     0.00000193   -0.00001748    0.00008007
     atom   54 type  2   force =    -0.00083840   -0.00059400   -0.00506603
     atom   55 type  1   force =     0.00011922   -0.00021759   -0.00232068
     atom   56 type  1   force =     0.00000001   -0.00000021    0.00260438
     atom   57 type  1   force =    -0.00001114    0.00000695   -0.00003871
     atom   58 type  2   force =    -0.00000001   -0.00000001    0.00441162
     atom   59 type  2   force =    -0.00000053   -0.00000039   -0.00005341
     atom   60 type  2   force =     0.00002255   -0.00001200   -0.00010547
[...]
     atom  132 type  2   force =    -0.00002299   -0.00001658   -0.00010414
     atom  133 type  2   force =    -0.00000025    0.00000017    0.00023550
     atom  134 type  2   force =     0.00001433    0.00000488    0.00009033
     atom  135 type  2   force =    -0.00035689   -0.00019179   -0.00423701
     atom  136 type  1   force =    -0.00001409    0.00008682   -0.00239461
     atom  137 type  1   force =     0.00000025    0.00000030    0.00260492
     atom  138 type  1   force =     0.00000567    0.00001183   -0.00002575
     atom  139 type  2   force =     0.00000000    0.00000000    0.00441160
     atom  140 type  2   force =     0.00000163    0.00000057   -0.00004711
     atom  141 type  2   force =    -0.00001081    0.00000714   -0.00014093
     atom  142 type  2   force =     0.00000032    0.00000010    0.00023533
     atom  143 type  2   force =     0.00001531    0.00001088    0.00008883
     atom  144 type  2   force =     0.00000476   -0.00012909   -0.00424002
     atom  145 type  3   force =    -0.00009417   -0.00006466    0.00119884
     atom  146 type  4   force =     0.00004145    0.00005289   -0.00138376

     Total force =     0.002846     Total SCF correction =     0.000266
     Energy error            =      1.7E-05 Ry
     Gradient error          =      8.7E-04 Ry/Bohr

     bfgs converged in   9 scf cycles and   8 bfgs steps
     (criteria: energy <  1.0E-04 Ry, force <  1.0E-03 Ry/Bohr)

     End of BFGS Geometry Optimization

     Final energy             =  -24358.2100553501 Ry

     File ./outdir/pwscf.bfgs deleted, as requested
Begin final coordinates

ATOMIC_POSITIONS (angstrom)
Mo            1.5633401319        2.7137379260        6.0953868161
Mo            1.5769197498        0.9104407117       -6.0872367793    0   0   0
Mo            0.0000877224        1.8207145003        0.0006958134
S             0.0000044503        0.0000077495       -7.6506323570    0   0   0
S             1.5756125085        0.9114222037       -1.5678817907
S             0.0019246174        1.8204039637        4.4917106700
S             0.0000053241        0.0000068460       -4.5222282367    0   0   0
S             1.5768489491        0.9102964020        1.5672795101
S            -0.0106681874        1.8104476902        7.6136645580
Mo           -0.0143931889        5.4610691365        6.0883563849
Mo            0.0000011799        3.6417399547       -6.0872367793    0   0   0
Mo           -1.5763802191        4.5514311921       -0.0007823354
S            -1.5769141197        2.7313069925       -7.6506323570    0   0   0
S             0.0001875647        3.6407155637       -1.5666373859
S            -1.5780658787        4.5471835484        4.5119344456
S            -1.5769132459        2.7313060890       -4.5222282367    0   0   0
S             0.0010960518        3.6418868900        1.5687619494
S            -1.6004271358        4.5639122856        7.6529850848
Mo           -1.5775733394        8.1947105326        6.0768652982
Mo           -1.5769173901        6.3730391977       -6.0872367793    0   0   0
Mo           -3.1537950855        7.2834458864       -0.0014086560
S            -3.1538326896        5.4626062355       -7.6506323570    0   0   0
S            -1.5764253525        6.3724082233       -1.5666393546
S            -3.1540450722        7.2865700301        4.5059052899
S            -3.1538318159        5.4626053320       -4.5222282367    0   0   0
S            -1.5768738301        6.3728070387        1.5656037603
S            -3.1516233272        7.2839543680        7.6466362700
Mo            3.1530025343       -0.0006249277        6.0785644195
Mo           -3.1538359601        9.1043384407       -6.0872367793    0   0   0
Mo           -4.7312622339       10.0157529785       -0.0022187675
S            -4.7307512596        8.1939054785       -7.6506323570    0   0   0
S            -3.1538898042        9.1046172953       -1.5673370633
S            -4.7369928170       10.0142440654        4.5142445166
S            -4.7307503859        8.1939045750       -4.5222282367    0   0   0
S            -3.1544792882        9.1048808519        1.5646891204
S            -4.7207415140       10.0020269802        7.6508489974
Mo            4.7470565806        2.7237654800        6.0880745721
Mo            4.7307503218        0.9104407117       -6.0872367793    0   0   0
Mo            3.1526559886        1.8210766515       -0.0017500677
S             3.1538350223        0.0000077495       -7.6506323570    0   0   0
S             4.7307056291        0.9107755698       -1.5666277640
S             3.1505261719        1.8294952019        4.5207940624
S             3.1538358961        0.0000068460       -4.5222282367    0   0   0
S             4.7295179610        0.9103659472        1.5654339450
S             3.1700757070        1.8141714888        7.6544478239
Mo            3.1630521111        5.4698375361        6.1451587968
Mo            3.1538317519        3.6417399547       -6.0872367793    0   0   0
Mo            1.5770068832        4.5517337431       -0.0010050158
S             1.5769164523        2.7313069925       -7.6506323570    0   0   0
S             3.1541116012        3.6421337890       -1.5666482253
S             1.6021286931        4.5576598053        4.5646523632
S             1.5769173261        2.7313060890       -4.5222282367    0   0   0
S             3.1535363715        3.6415805911        1.5667867296
S             1.4896102977        4.5147262103        7.7128225247
Mo            1.5703440185        8.2054674930        6.0867745229
Mo            1.5769131819        6.3730391977       -6.0872367793    0   0   0
Mo            0.0002458561        7.2834679455       -0.0008142096
S            -0.0000021176        5.4626062355       -7.6506323570    0   0   0
S             1.5769259336        6.3727727452       -1.5665408232
S             0.0021527383        7.2786300995        4.5145766380
[...]
S             6.3055969686        7.2798438215        4.5140038244
S             6.3076599001        5.4626053320       -4.5222282367    0   0   0
S             7.8845196975        6.3734923341        1.5658926266
S             6.3126192236        7.2809183833        7.6538162876
Mo           -0.0002219723        0.0079703199        6.0838045701
Mo            6.3076557559        9.1043384407       -6.0872367793    0   0   0
Mo            4.7311474509       10.0154791336       -0.0008721720
S             4.7307404564        8.1939054785       -7.6506323570    0   0   0
S             6.3071793713        9.1040889726       -1.5668575229
S             4.7396692019       10.0117326309        4.5128344395
S             4.7307413301        8.1939045750       -4.5222282367    0   0   0
S             6.3081689205        9.1044774791        1.5656838045
S             4.7234384230       10.0170401404        7.6538236912
Pd            3.1594073486        5.4678258198        9.0298037885
H            -0.0171521450        1.7982414566        9.0159141475
End final coordinates

     Writing all to output data dir ./outdir/pwscf.save/

     General routines

     Parallel routines

   This run was terminated on:  16: 5:54  29Aug2023

   JOB DONE.
Application 11110844 resources: utime ~1617856s, stime ~19872s, Rss ~2356648, inblocks ~0, outblocks ~33983592