     Program PWSCF v.7.2 starts on 29Aug2023 at  3: 1: 0

     Waiting for input...
     Reading input from standard input
Warning: card &CELL ignored
Warning: card / ignored

     Current dimensions of program PWSCF are:
     Max number of different atomic species (ntypx) = 10
     Max number of k-points (npk) =  40000
     Max angular momentum in pseudopotentials (lmaxx) =  4
     file Mo.pbe-spn-kjpaw_psl.1.0.0.UPF: wavefunction(s)  4S 4D renormalized
     file S.pbe-n-kjpaw_psl.1.0.0.UPF: wavefunction(s)  3S 3P renormalized
     file Pd.pbe-spn-kjpaw_psl.1.0.0.UPF: wavefunction(s)  4S 5S 4D renormalized
     file H.pbe-kjpaw_psl.1.0.0.UPF: wavefunction(s)  1S renormalized

     R & G space division:  proc/nbgrp/npool/nimage =      36
     Subspace diagonalization in iterative solution of the eigenvalue problem:
     one sub-group per band group will be used

     Using Slab Decomposition

     bravais-lattice index     =            0
     lattice parameter (alat)  =      23.8395  a.u.
     unit-cell volume          =   28182.8498 (a.u.)^3
     number of atoms/cell      =          146
     number of atomic types    =            4
     number of electrons       =      1267.00
     number of Kohn-Sham states=          761
     kinetic-energy cutoff     =      77.0000  Ry
     charge density cutoff     =     539.0000  Ry
     scf convergence threshold =      1.0E-06
     mixing beta               =       0.2000
     number of iterations used =            8  plain     mixing
     energy convergence thresh.=      1.0E-04
     force convergence thresh. =      1.0E-03
     Exchange-correlation= SLA  PW   PBX  PBC
                           (   1   4   3   4   0   0   0)
     nstep                     =         1000

     Effective Screening Medium Method
     Boundary Conditions: Vacuum-Slab-Vacuum
     total charge in unit cell        =   0.0000
     grid points for fit at edges     =        4

     celldm(1)=  23.839504  celldm(2)=   0.000000  celldm(3)=   0.000000
     celldm(4)=   0.000000  celldm(5)=   0.000000  celldm(6)=   0.000000

     crystal axes: (cart. coord. in units of alat)
               a(1) = (   1.000000   0.000000   0.000000 )
               a(2) = (  -0.500001   0.866026   0.000000 )
               a(3) = (   0.000000   0.000000   2.401941 )

     reciprocal axes: (cart. coord. in units 2 pi/alat)
               b(1) = (  1.000000  0.577351  0.000000 )
               b(2) = (  0.000000  1.154700  0.000000 )
               b(3) = (  0.000000  0.000000  0.416330 )

     PseudoPot. # 1 for Mo read from file:
     ./pseudo/Mo.pbe-spn-kjpaw_psl.1.0.0.UPF
     MD5 check sum: 317bf72632116215fd98f72de1686f13
     Pseudo is Projector augmented-wave + core cor, Zval = 14.0
     Generated using 'atomic' code by A. Dal Corso  v.7.2
     Shape of augmentation charge: PSQ
     Using radial grid of 1229 points,  6 beta functions with:
                l(1) =   0
                l(2) =   0
                l(3) =   1
                l(4) =   1
                l(5) =   2
                l(6) =   2
     Q(r) pseudized with 0 coefficients

     PseudoPot. # 2 for S  read from file:
     ./pseudo/S.pbe-n-kjpaw_psl.1.0.0.UPF
     MD5 check sum: 8b7b5302570d38d5e87fed6a1065abda
     Pseudo is Projector augmented-wave + core cor, Zval =  6.0
     Generated using 'atomic' code by A. Dal Corso  v.7.2
     Shape of augmentation charge: PSQ
     Using radial grid of 1151 points,  6 beta functions with:
                l(1) =   0
                l(2) =   0
                l(3) =   1
                l(4) =   1
                l(5) =   2
                l(6) =   2
     Q(r) pseudized with 0 coefficients

     PseudoPot. # 3 for Pd read from file:
     ./pseudo/Pd.pbe-spn-kjpaw_psl.1.0.0.UPF
     MD5 check sum: a60571a671f2502b8a6a4569d20a6edb
     Pseudo is Projector augmented-wave + core cor, Zval = 18.0
     Generated using 'atomic' code by A. Dal Corso  v.7.2
     Shape of augmentation charge: PSQ
     Using radial grid of 1235 points,  6 beta functions with:
                l(1) =   0
                l(2) =   0
                l(3) =   1
                l(4) =   1
                l(5) =   2
                l(6) =   2
     Q(r) pseudized with 0 coefficients

     PseudoPot. # 4 for H  read from file:
     ./pseudo/H.pbe-kjpaw_psl.1.0.0.UPF
     MD5 check sum: b3cb3c48ee3b58cc53e4d592112d0ca6
     Pseudo is Projector augmented-wave, Zval =  1.0
     Generated using 'atomic' code by A. Dal Corso  v.7.2
     Shape of augmentation charge: PSQ
     Using radial grid of  929 points,  2 beta functions with:
                l(1) =   0
                l(2) =   0
     Q(r) pseudized with 0 coefficients

     atomic species   valence    mass     pseudopotential
        Mo            14.00    95.95000     Mo( 1.00)
        S              6.00    32.06000     S ( 1.00)
        Pd            18.00   106.42000     Pd( 1.00)
        H              1.00     1.00800     H ( 1.00)

     No symmetry found

   Cartesian axes

     site n.     atom                  positions (alat units)
         1           Mo  tau(   1) = (   0.1244805   0.2154429   0.4826124  )
         2           Mo  tau(   2) = (   0.1250004   0.0721694  -0.4825273  )
         3           Mo  tau(   3) = (   0.0000154   0.1443583  -0.0000534  )
         4           S   tau(   4) = (   0.0000004   0.0000006  -0.6064556  )
         5           S   tau(   5) = (   0.1249822   0.0722030  -0.1241916  )
         6           S   tau(   6) = (   0.0001873   0.1444894   0.3573292  )
         7           S   tau(   7) = (   0.0000004   0.0000005  -0.3584711  )
         8           S   tau(   8) = (   0.1250220   0.0721432   0.1241096  )
         9           S   tau(   9) = (  -0.0009222   0.1433430   0.6062350  )
        10           Mo  tau(  10) = (  -0.0011812   0.4330952   0.4826123  )
        11           Mo  tau(  11) = (   0.0000001   0.2886759  -0.4825273  )
        12           Mo  tau(  12) = (  -0.1249761   0.3608493  -0.0000533  )
        13           S   tau(  13) = (  -0.1249999   0.2165071  -0.6064556  )
        14           S   tau(  14) = (   0.0000232   0.2886904  -0.1241345  )
        15           S   tau(  15) = (  -0.1247753   0.3609305   0.3573291  )
        16           S   tau(  16) = (  -0.1249998   0.2165070  -0.3584711  )
        17           S   tau(  17) = (   0.0000901   0.2887289   0.1242236  )
        18           S   tau(  18) = (  -0.1263226   0.3605428   0.6062351  )
        19           Mo  tau(  19) = (  -0.1251400   0.6495983   0.4819363  )
        20           Mo  tau(  20) = (  -0.1250002   0.5051824  -0.4825273  )
        21           Mo  tau(  21) = (  -0.2500026   0.5773383  -0.0001491  )
        22           S   tau(  22) = (  -0.2500002   0.4330136  -0.6064556  )
        23           S   tau(  23) = (  -0.1249812   0.5051509  -0.1241919  )
        24           S   tau(  24) = (  -0.2500015   0.5775831   0.3575295  )
        25           S   tau(  25) = (  -0.2500001   0.4330135  -0.3584711  )
        26           S   tau(  26) = (  -0.1250129   0.5052153   0.1241101  )
        27           S   tau(  27) = (  -0.2500018   0.5771934   0.6060379  )
        28           Mo  tau(  28) = (   0.2499987  -0.0001601   0.4819365  )
        29           Mo  tau(  29) = (  -0.2500004   0.7216889  -0.4825273  )
        30           Mo  tau(  30) = (  -0.3750135   0.7938631  -0.0001491  )
        31           S   tau(  31) = (  -0.3750004   0.6495201  -0.6064556  )
        32           S   tau(  32) = (  -0.2500026   0.7216883  -0.1242347  )
        33           S   tau(  33) = (  -0.3747997   0.7937400   0.3575295  )
        34           S   tau(  34) = (  -0.3750004   0.6495200  -0.3584711  )
        35           S   tau(  35) = (  -0.2500029   0.7216883   0.1240299  )
        36           S   tau(  36) = (  -0.3751376   0.7939346   0.6060379  )
        37           Mo  tau(  37) = (   0.3755166   0.2154425   0.4826119  )
        38           Mo  tau(  38) = (   0.3750004   0.0721694  -0.4825273  )
        39           Mo  tau(  39) = (   0.2499990   0.1443474  -0.0000968  )
        40           S   tau(  40) = (   0.2500004   0.0000006  -0.6064556  )
        41           S   tau(  41) = (   0.3750152   0.0722028  -0.1241921  )
        42           S   tau(  42) = (   0.2499983   0.1443201   0.3580593  )
        43           S   tau(  43) = (   0.2500004   0.0000005  -0.3584711  )
        44           S   tau(  44) = (   0.3749754   0.0721432   0.1241106  )
        45           S   tau(  45) = (   0.2499987   0.1437775   0.6065499  )
        46           Mo  tau(  46) = (   0.2499984   0.4330123   0.4872880  )
        47           Mo  tau(  47) = (   0.2500001   0.2886759  -0.4825273  )
        48           Mo  tau(  48) = (   0.1250277   0.3608616  -0.0000572  )
        49           S   tau(  49) = (   0.1250001   0.2165071  -0.6064556  )
        50           S   tau(  50) = (   0.2499987   0.2886898  -0.1241693  )
        51           S   tau(  51) = (   0.1266397   0.3617911   0.3615924  )
        52           S   tau(  52) = (   0.1250002   0.2165070  -0.3584711  )
        53           S   tau(  53) = (   0.2499988   0.2886671   0.1241958  )
        54           S   tau(  54) = (   0.1173054   0.3564020   0.6108885  )
        55           Mo  tau(  55) = (   0.1243363   0.6504991   0.4826116  )
        56           Mo  tau(  56) = (   0.1249998   0.5051824  -0.4825273  )
        57           Mo  tau(  57) = (   0.0000060   0.5773464  -0.0000969  )
        58           S   tau(  58) = (  -0.0000002   0.4330136  -0.6064556  )
        59           S   tau(  59) = (   0.1250101   0.5051751  -0.1241696  )
        60           S   tau(  60) = (  -0.0000165   0.5773581   0.3580590  )
[...]
       132           S   tau( 132) = (   0.5000130   0.5773585   0.3580587  )
       133           S   tau( 133) = (   0.4999999   0.4330135  -0.3584711  )
       134           S   tau( 134) = (   0.6250081   0.5052147   0.1241104  )
       135           S   tau( 135) = (   0.5004826   0.5776298   0.6065487  )
       136           Mo  tau( 136) = (  -0.0000706   0.0000401   0.4813070  )
       137           Mo  tau( 137) = (   0.4999996   0.7216889  -0.4825273  )
       138           Mo  tau( 138) = (   0.3749881   0.7938314  -0.0000535  )
       139           S   tau( 139) = (   0.3749996   0.6495201  -0.6064556  )
       140           S   tau( 140) = (   0.4999594   0.7216844  -0.1241918  )
       141           S   tau( 141) = (   0.3749610   0.7936184   0.3573285  )
       142           S   tau( 142) = (   0.3749996   0.6495200  -0.3584711  )
       143           S   tau( 143) = (   0.5000310   0.7216802   0.1241101  )
       144           S   tau( 144) = (   0.3753979   0.7951517   0.6062337  )
       145           Pd  tau( 145) = (   0.2499985   0.4330123   0.7148096  )
       146           H   tau( 146) = (   0.2500134   0.4330448   0.8416749  )

     DFT-D3 Dispersion Correction (3-body terms):
       Reference C6 values for interpolation:

         atom   Coordination number   C6
         H          0.912             6.05
         H          0.000            15.18
         S          0.000           268.01
[...]
     atom   13 type  2   force =     0.00000000    0.00000000    0.00000000
     atom   14 type  2   force =     0.00000160    0.00000117    0.00000468
     atom   15 type  2   force =     0.00001403   -0.00000478   -0.00002561
     atom   16 type  2   force =     0.00000000    0.00000000    0.00000000
     atom   17 type  2   force =    -0.00000306   -0.00000181    0.00001251
     atom   18 type  2   force =     0.00001261   -0.00000181   -0.00001796
     atom   19 type  1   force =    -0.00001416    0.00000854   -0.00006874
     atom   20 type  1   force =     0.00000000    0.00000000    0.00000000
     atom   21 type  1   force =    -0.00000063   -0.00000382    0.00002400
     atom   22 type  2   force =     0.00000000    0.00000000    0.00000000
     atom   23 type  2   force =     0.00000207    0.00000524    0.00000077
     atom   24 type  2   force =     0.00000004    0.00000426   -0.00001209
     atom   25 type  2   force =     0.00000000    0.00000000    0.00000000
     atom   26 type  2   force =     0.00000252   -0.00000095    0.00000989
     atom   27 type  2   force =    -0.00000009    0.00000385   -0.00002348
     atom   28 type  1   force =     0.00000020   -0.00001588   -0.00006821
     atom   29 type  1   force =     0.00000000    0.00000000    0.00000000
     atom   30 type  1   force =    -0.00000358    0.00000236    0.00002445
     atom   31 type  2   force =     0.00000000    0.00000000    0.00000000
     atom   32 type  2   force =    -0.00000012   -0.00000004   -0.00000283
     atom   33 type  2   force =     0.00000376   -0.00000209   -0.00001200
     atom   34 type  2   force =     0.00000000    0.00000000    0.00000000
     atom   35 type  2   force =    -0.00000013   -0.00000003    0.00000582
     atom   36 type  2   force =     0.00000308   -0.00000182   -0.00002369
     atom   37 type  1   force =     0.00000220    0.00003594   -0.00007180
     atom   38 type  1   force =     0.00000000    0.00000000    0.00000000
     atom   39 type  1   force =     0.00000050   -0.00000960    0.00002664
     atom   40 type  2   force =     0.00000000    0.00000000    0.00000000
     atom   41 type  2   force =    -0.00000559   -0.00000074    0.00000094
     atom   42 type  2   force =     0.00000060    0.00001728   -0.00002123
     atom   43 type  2   force =     0.00000000    0.00000000    0.00000000
     atom   44 type  2   force =    -0.00000037    0.00000294    0.00000989
     atom   45 type  2   force =     0.00000057    0.00000901   -0.00001618
     atom   46 type  1   force =     0.00000071   -0.00000018   -0.00009985
     atom   47 type  1   force =     0.00000000    0.00000000    0.00000000
     atom   48 type  1   force =    -0.00000334   -0.00000154    0.00002824
     atom   49 type  2   force =     0.00000000    0.00000000    0.00000000
     atom   50 type  2   force =     0.00000017    0.00000289    0.00000161
     atom   51 type  2   force =     0.00000401    0.00000229    0.00000675
     atom   52 type  2   force =     0.00000000    0.00000000    0.00000000
     atom   53 type  2   force =     0.00000004   -0.00000609    0.00001330
     atom   54 type  2   force =     0.00000868    0.00000485   -0.00006190
     atom   55 type  1   force =     0.00003334   -0.00001610   -0.00007182
     atom   56 type  1   force =     0.00000000    0.00000000    0.00000000
     atom   57 type  1   force =    -0.00000830    0.00000501    0.00002592
     atom   58 type  2   force =     0.00000000    0.00000000    0.00000000
     atom   59 type  2   force =     0.00000250   -0.00000154    0.00000169
     atom   60 type  2   force =     0.00001506   -0.00000850   -0.00002163
[...]
     atom  132 type  2   force =    -0.00001517   -0.00000851   -0.00002124
     atom  133 type  2   force =     0.00000000    0.00000000    0.00000000
     atom  134 type  2   force =    -0.00000261   -0.00000117    0.00000975
     atom  135 type  2   force =    -0.00000784   -0.00000411   -0.00001546
     atom  136 type  1   force =     0.00004339   -0.00002588   -0.00006917
     atom  137 type  1   force =     0.00000000    0.00000000    0.00000000
     atom  138 type  1   force =    -0.00001161   -0.00000307   -0.00000158
     atom  139 type  2   force =     0.00000000    0.00000000    0.00000000
     atom  140 type  2   force =     0.00000328   -0.00000424    0.00000035
     atom  141 type  2   force =    -0.00001124   -0.00000990   -0.00002513
     atom  142 type  2   force =     0.00000000    0.00000000    0.00000000
     atom  143 type  2   force =    -0.00000227   -0.00000173    0.00000988
     atom  144 type  2   force =    -0.00000784   -0.00001056   -0.00001816
     atom  145 type  3   force =    -0.00000065    0.00000030    0.00002714
     atom  146 type  4   force =    -0.00000001    0.00000002   -0.00000101

     DFT-D3 dispersion contribution to forces:
     atom    1 type  1   force =     0.00017364    0.00029536   -0.00223458
     atom    2 type  1   force =     0.00000028   -0.00000014    0.00260484
     atom    3 type  1   force =    -0.00000690   -0.00000714   -0.00002248
     atom    4 type  2   force =     0.00000001   -0.00000000    0.00441161
     atom    5 type  2   force =     0.00000159   -0.00000115   -0.00004690
     atom    6 type  2   force =    -0.00000912    0.00000264   -0.00015495
     atom    7 type  2   force =     0.00000054   -0.00000033    0.00023568
     atom    8 type  2   force =    -0.00000351   -0.00001920    0.00009132
     atom    9 type  2   force =     0.00019102    0.00022146   -0.00431071
     atom   10 type  1   force =     0.00034260    0.00000270   -0.00223457
     atom   11 type  1   force =     0.00000035    0.00000020    0.00260450
     atom   12 type  1   force =    -0.00000964   -0.00000241   -0.00002248
     atom   13 type  2   force =     0.00000003    0.00000002    0.00441150
     atom   14 type  2   force =     0.00000040    0.00000023   -0.00004882
     atom   15 type  2   force =    -0.00000227   -0.00000922   -0.00015495
     atom   16 type  2   force =     0.00000055    0.00000032    0.00023584
     atom   17 type  2   force =    -0.00001218   -0.00000704    0.00009744
     atom   18 type  2   force =     0.00028731    0.00005470   -0.00431071
     atom   19 type  1   force =     0.00009175   -0.00005297   -0.00255130
     atom   20 type  1   force =     0.00000001    0.00000031    0.00260484
     atom   21 type  1   force =    -0.00000000    0.00000068   -0.00001563
     atom   22 type  2   force =     0.00000000    0.00000001    0.00441161
     atom   23 type  2   force =    -0.00000020    0.00000195   -0.00004690
     atom   24 type  2   force =     0.00000000    0.00000345   -0.00020042
     atom   25 type  2   force =    -0.00000001    0.00000063    0.00023568
     atom   26 type  2   force =    -0.00001838    0.00000656    0.00009132
     atom   27 type  2   force =    -0.00000000   -0.00002561   -0.00439778
     atom   28 type  1   force =    -0.00000000    0.00010594   -0.00255130
     atom   29 type  1   force =    -0.00000000   -0.00000000    0.00260518
     atom   30 type  1   force =     0.00000059   -0.00000034   -0.00001562
     atom   31 type  2   force =     0.00000004    0.00000002    0.00441174
     atom   32 type  2   force =     0.00000000    0.00000000   -0.00004591
     atom   33 type  2   force =     0.00000299   -0.00000172   -0.00020042
     atom   34 type  2   force =     0.00000007    0.00000004    0.00023618
     atom   35 type  2   force =     0.00000000    0.00000000    0.00009896
     atom   36 type  2   force =    -0.00002218    0.00001280   -0.00439778
     atom   37 type  1   force =    -0.00017364    0.00029535   -0.00223457
     atom   38 type  1   force =    -0.00000028   -0.00000015    0.00260485
     atom   39 type  1   force =    -0.00000000   -0.00001326   -0.00003565
     atom   40 type  2   force =     0.00000000   -0.00000004    0.00441174
     atom   41 type  2   force =    -0.00000159   -0.00000115   -0.00004690
     atom   42 type  2   force =     0.00000001    0.00002927   -0.00011248
     atom   43 type  2   force =    -0.00000000   -0.00000008    0.00023618
     atom   44 type  2   force =     0.00000351   -0.00001920    0.00009132
     atom   45 type  2   force =     0.00000000    0.00057382   -0.00415413
     atom   46 type  1   force =     0.00000001    0.00000000   -0.00241744
     atom   47 type  1   force =    -0.00000000    0.00000005    0.00260496
     atom   48 type  1   force =    -0.00000957   -0.00000553   -0.00005366
     atom   49 type  2   force =     0.00000000    0.00000001    0.00441153
     atom   50 type  2   force =     0.00000000   -0.00000123   -0.00005254
     atom   51 type  2   force =     0.00004472    0.00002582    0.00011467
     atom   52 type  2   force =     0.00000040    0.00000022    0.00023595
     atom   53 type  2   force =     0.00000000   -0.00001858    0.00007916
     atom   54 type  2   force =     0.00023801    0.00013743   -0.00422076
     atom   55 type  1   force =     0.00016896   -0.00029805   -0.00223456
     atom   56 type  1   force =     0.00000004   -0.00000003    0.00260496
     atom   57 type  1   force =    -0.00001149    0.00000663   -0.00003565
     atom   58 type  2   force =     0.00000001   -0.00000000    0.00441153
     atom   59 type  2   force =    -0.00000106    0.00000062   -0.00005254
     atom   60 type  2   force =     0.00002535   -0.00001463   -0.00011248
[...]
     atom  132 type  2   force =    -0.00002535   -0.00001464   -0.00011248
     atom  133 type  2   force =    -0.00000040    0.00000024    0.00023595
     atom  134 type  2   force =     0.00001838    0.00000656    0.00009132
     atom  135 type  2   force =    -0.00049696   -0.00028692   -0.00415409
     atom  136 type  1   force =    -0.00001383    0.00000798   -0.00256495
     atom  137 type  1   force =     0.00000026   -0.00000016    0.00260485
     atom  138 type  1   force =     0.00000273    0.00000955   -0.00002248
     atom  139 type  2   force =    -0.00000000   -0.00000001    0.00441153
     atom  140 type  2   force =     0.00000179   -0.00000080   -0.00004690
     atom  141 type  2   force =    -0.00000685    0.00000657   -0.00015495
     atom  142 type  2   force =     0.00000001   -0.00000046    0.00023595
     atom  143 type  2   force =     0.00001488    0.00001263    0.00009132
     atom  144 type  2   force =    -0.00009629   -0.00027620   -0.00431069
     atom  145 type  3   force =    -0.00000001   -0.00000002   -0.00637671
     atom  146 type  4   force =     0.00000000    0.00000001   -0.00079194

     Total force =     0.001650     Total SCF correction =     0.000383
     SCF correction compared to forces is large: reduce conv_thr to get better values
     Energy error            =      9.7E-06 Ry
     Gradient error          =      7.7E-04 Ry/Bohr

     bfgs converged in  10 scf cycles and   9 bfgs steps
     (criteria: energy <  1.0E-04 Ry, force <  1.0E-03 Ry/Bohr)

     End of BFGS Geometry Optimization

     Final energy             =  -24358.2955855857 Ry

     File ./outdir/pwscf.bfgs deleted, as requested
Begin final coordinates

ATOMIC_POSITIONS (angstrom)
Mo            1.5695114272        2.7188989644        6.0852618705
Mo            1.5769197498        0.9104407117       -6.0872367793    0   0   0
Mo            0.0002286790        1.8210388878       -0.0005553746
S             0.0000044503        0.0000077495       -7.6506323570    0   0   0
S             1.5764685397        0.9107786766       -1.5669968577
S             0.0017404049        1.8215828795        4.5072526823
S             0.0000053241        0.0000068460       -4.5222282367    0   0   0
S             1.5774763285        0.9101316055        1.5655277907
S            -0.0141515514        1.8093505703        7.6480443267
Mo           -0.0144432706        5.4623880153        6.0852648744
Mo            0.0000011799        3.6417399547       -6.0872367793    0   0   0
Mo           -1.5766670507        4.5522967383       -0.0005564297
S            -1.5769141197        2.7313069925       -7.6506323570    0   0   0
S             0.0000671844        3.6417844798       -1.5659920181
S            -1.5754284736        4.5533183460        4.5072537150
S            -1.5769132459        2.7313060890       -4.5222282367    0   0   0
S             0.0010883794        3.6423756543        1.5671978234
S            -1.5939685402        4.5456707497        7.6480442398
Mo           -1.5784988772        8.1947896564        6.0762550137
Mo           -1.5769173901        6.3730391977       -6.0872367793    0   0   0
Mo           -3.1538604057        7.2833445710       -0.0019853444
S            -3.1538326896        5.4626062355       -7.6506323570    0   0   0
S            -1.5768573457        6.3724911608       -1.5669977679
S            -3.1538548190        7.2852101154        4.5087188124
S            -3.1538318159        5.4626053320       -4.5222282367    0   0   0
S            -1.5769136704        6.3736874329        1.5655245722
S            -3.1538546272        7.2827517822        7.6437870397
Mo            3.1538157095       -0.0018091341        6.0762556080
Mo           -3.1538359601        9.1043384407       -6.0872367793    0   0   0
Mo           -4.7308822033       10.0148249768       -0.0019837740
S            -4.7307512596        8.1939054785       -7.6506323570    0   0   0
S            -3.1538634325        9.1043317730       -1.5674049960
S            -4.7292534429       10.0138784106        4.5087185780
S            -4.7307503859        8.1939045750       -4.5222282367    0   0   0
S            -3.1538630464        9.1043301490        1.5646170468
S            -4.7313833873       10.0151068838        7.6437870244
Mo            4.7381177884        2.7188954695        6.0852570798
Mo            4.7307503218        0.9104407117       -6.0872367793    0   0   0
Mo            3.1538066796        1.8209202070       -0.0019105820
S             3.1538350223        0.0000077495       -7.6506323570    0   0   0
S             4.7311485003        0.9107788192       -1.5669960738
S             3.1538134550        1.8217801672        4.5155153176
S             3.1538358961        0.0000068460       -4.5222282367    0   0   0
S             4.7301396513        0.9101308881        1.5655257775
S             3.1538162275        1.8125464911        7.6503795041
Mo            3.1538112951        5.4625862785        6.1543277630
Mo            3.1538317519        3.6417399547       -6.0872367793    0   0   0
Mo            1.5772432582        4.5523693106       -0.0009989525
S             1.5769164523        2.7313069925       -7.6506323570    0   0   0
S             3.1538055774        3.6420010019       -1.5668825406
S             1.5951096097        4.5626719156        4.5543671444
S             1.5769173261        2.7313060890       -4.5222282367    0   0   0
S             3.1538049787        3.6413664385        1.5660207529
S             1.4950278948        4.5048877688        7.6874492450
Mo            1.5698503086        8.2064864188        6.0852582271
Mo            1.5769131819        6.3730391977       -6.0872367793    0   0   0
Mo            0.0000173102        7.2834378852       -0.0019123581
S            -0.0000021176        5.4626062355       -7.6506323570    0   0   0
S             1.5771208502        6.3728977417       -1.5668832804
S             0.0007764524        7.2829939318        4.5155158305
[...]
S             6.3068377141        7.2829941296        4.5155152108
S             6.3076599001        5.4626053320       -4.5222282367    0   0   0
S             7.8845178154        6.3736882976        1.5655255394
S             6.3148361000        7.2876110703        7.6503805240
Mo           -0.0008103246        0.0004500088        6.0720464167
Mo            6.3076557559        9.1043384407       -6.0872367793    0   0   0
Mo            4.7306895332       10.0144631776       -0.0005562247
S             4.7307404564        8.1939054785       -7.6506323570    0   0   0
S             6.3071185088        9.1045295839       -1.5669963829
S             4.7309705895       10.0128702263        4.5072506600
S             4.7307413301        8.1939045750       -4.5222282367    0   0   0
S             6.3081821973        9.1039788606        1.5655261148
S             4.7336158342       10.0327504191        7.6480445886
Pd            3.1538406653        5.4626356206        9.0723472934
H             3.1540013710        5.4630017054       10.6681222369
End final coordinates

     Writing all to output data dir ./outdir/pwscf.save/

     General routines

     Parallel routines

   This run was terminated on:  15:44:49  29Aug2023

   JOB DONE.
Application 11110792 resources: utime ~1630104s, stime ~19672s, Rss ~2361792, inblocks ~0, outblocks ~34321384