     Program PWSCF v.7.3 starts on 31Mar2024 at 12:27: 0

     Waiting for input...
     Reading input from standard input
Warning: card &CELL ignored
Warning: card / ignored

     Current dimensions of program PWSCF are:
     Max number of different atomic species (ntypx) = 10
     Max number of k-points (npk) =  40000
     Max angular momentum in pseudopotentials (lmaxx) =  4
     file Mo.pbe-spn-kjpaw_psl.1.0.0.UPF: wavefunction(s)  4S 4D renormalized
     file S.pbe-n-kjpaw_psl.1.0.0.UPF: wavefunction(s)  3S 3P renormalized
     file Pt.pbe-spfn-kjpaw_psl.1.0.0.UPF: wavefunction(s)  5P 4F renormalized
     file Pd.pbe-spn-kjpaw_psl.1.0.0.UPF: wavefunction(s)  4S 5S 4D renormalized

     R & G space division:  proc/nbgrp/npool/nimage =      36
     Subspace diagonalization in iterative solution of the eigenvalue problem:
     one sub-group per band group will be used

     Using Slab Decomposition

     bravais-lattice index     =            0
     lattice parameter (alat)  =      23.8395  a.u.
     unit-cell volume          =   28182.8498 (a.u.)^3
     number of atoms/cell      =          147
     number of atomic types    =            4
     number of electrons       =      1330.00
     number of Kohn-Sham states=          798
     kinetic-energy cutoff     =      77.0000  Ry
     charge density cutoff     =     539.0000  Ry
     scf convergence threshold =      1.0E-06
     mixing beta               =       0.2000
     number of iterations used =            8  plain     mixing
     energy convergence thresh.=      1.0E-04
     force convergence thresh. =      1.0E-03
     Exchange-correlation= SLA  PW   PBX  PBC
                           (   1   4   3   4   0   0   0)
     nstep                     =         1000

     Effective Screening Medium Method
     Boundary Conditions: Vacuum-Slab-Vacuum
     total charge in unit cell        =   0.0000
     grid points for fit at edges     =        4

     celldm(1)=  23.839504  celldm(2)=   0.000000  celldm(3)=   0.000000
     celldm(4)=   0.000000  celldm(5)=   0.000000  celldm(6)=   0.000000

     crystal axes: (cart. coord. in units of alat)
               a(1) = (   1.000000   0.000000   0.000000 )
               a(2) = (  -0.500001   0.866026   0.000000 )
               a(3) = (   0.000000   0.000000   2.401941 )

     reciprocal axes: (cart. coord. in units 2 pi/alat)
               b(1) = (  1.000000  0.577351  0.000000 )
               b(2) = (  0.000000  1.154700  0.000000 )
               b(3) = (  0.000000  0.000000  0.416330 )

     PseudoPot. # 1 for Mo read from file:
     ./pseudo/Mo.pbe-spn-kjpaw_psl.1.0.0.UPF
     MD5 check sum: 317bf72632116215fd98f72de1686f13
     Pseudo is Projector augmented-wave + core cor, Zval = 14.0
     Generated using 'atomic' code by A. Dal Corso  v.7.2
     Shape of augmentation charge: PSQ
     Using radial grid of 1229 points,  6 beta functions with:
                l(1) =   0
                l(2) =   0
                l(3) =   1
                l(4) =   1
                l(5) =   2
                l(6) =   2
     Q(r) pseudized with 0 coefficients

     PseudoPot. # 2 for S  read from file:
     ./pseudo/S.pbe-n-kjpaw_psl.1.0.0.UPF
     MD5 check sum: 8b7b5302570d38d5e87fed6a1065abda
     Pseudo is Projector augmented-wave + core cor, Zval =  6.0
     Generated using 'atomic' code by A. Dal Corso  v.7.2
     Shape of augmentation charge: PSQ
     Using radial grid of 1151 points,  6 beta functions with:
                l(1) =   0
                l(2) =   0
                l(3) =   1
                l(4) =   1
                l(5) =   2
                l(6) =   2
     Q(r) pseudized with 0 coefficients

     PseudoPot. # 3 for Pt read from file:
     ./pseudo/Pt.pbe-spfn-kjpaw_psl.1.0.0.UPF
     MD5 check sum: 620096ebf4e6ebacc94de60fd67efcb5
     Pseudo is Projector augmented-wave + core cor, Zval = 32.0
     Generated using 'atomic' code by A. Dal Corso  v.7.2
     Shape of augmentation charge: PSQ
     Using radial grid of 1277 points,  8 beta functions with:
                l(1) =   0
                l(2) =   0
                l(3) =   1
                l(4) =   1
                l(5) =   2
                l(6) =   2
                l(7) =   3
                l(8) =   3
     Q(r) pseudized with 0 coefficients

     PseudoPot. # 4 for Pd read from file:
     ./pseudo/Pd.pbe-spn-kjpaw_psl.1.0.0.UPF
     MD5 check sum: a60571a671f2502b8a6a4569d20a6edb
     Pseudo is Projector augmented-wave + core cor, Zval = 18.0
     Generated using 'atomic' code by A. Dal Corso  v.7.2
     Shape of augmentation charge: PSQ
     Using radial grid of 1235 points,  6 beta functions with:
                l(1) =   0
                l(2) =   0
                l(3) =   1
                l(4) =   1
                l(5) =   2
                l(6) =   2
     Q(r) pseudized with 0 coefficients

     atomic species   valence    mass     pseudopotential
     Mo               14.00    95.95000     Mo( 1.00)
     S                 6.00    32.06000     S ( 1.00)
     Pt               32.00   195.08400     Pt( 1.00)
     Pd               18.00   106.42000     Pd( 1.00)

     No symmetry found

   Cartesian axes

     site n.     atom                  positions (alat units)
         1        Mo     tau(   1) = (   0.1246074   0.2157200   0.4826345  )
         2        Mo     tau(   2) = (   0.1250004   0.0721694  -0.4825273  )
         3        Mo     tau(   3) = (   0.0000068   0.1443549  -0.0000406  )
         4        S      tau(   4) = (   0.0000004   0.0000006  -0.6064556  )
         5        S      tau(   5) = (   0.1249873   0.0722031  -0.1241756  )
         6        S      tau(   6) = (   0.0000973   0.1450650   0.3573519  )
         7        S      tau(   7) = (   0.0000004   0.0000005  -0.3584711  )
         8        S      tau(   8) = (   0.1249847   0.0720950   0.1240801  )
         9        S      tau(   9) = (  -0.0005301   0.1434694   0.6062599  )
        10        Mo     tau(  10) = (  -0.0009156   0.4330317   0.4832560  )
        11        Mo     tau(  11) = (   0.0000001   0.2886759  -0.4825273  )
        12        Mo     tau(  12) = (  -0.1249829   0.3608507   0.0000027  )
        13        S      tau(  13) = (  -0.1249999   0.2165071  -0.6064556  )
        14        S      tau(  14) = (   0.0000128   0.2886930  -0.1241006  )
        15        S      tau(  15) = (  -0.1248837   0.3612581   0.3580377  )
        16        S      tau(  16) = (  -0.1249998   0.2165070  -0.3584711  )
        17        S      tau(  17) = (   0.0000764   0.2887257   0.1242499  )
        18        S      tau(  18) = (  -0.1253220   0.3603286   0.6073134  )
        19        Mo     tau(  19) = (  -0.1249684   0.6493789   0.4818062  )
        20        Mo     tau(  20) = (  -0.1250002   0.5051824  -0.4825273  )
        21        Mo     tau(  21) = (  -0.2500040   0.5773207  -0.0001409  )
        22        S      tau(  22) = (  -0.2500002   0.4330136  -0.6064556  )
        23        S      tau(  23) = (  -0.1249903   0.5051158  -0.1241917  )
        24        S      tau(  24) = (  -0.2499555   0.5769406   0.3578597  )
        25        S      tau(  25) = (  -0.2500001   0.4330135  -0.3584711  )
        26        S      tau(  26) = (  -0.1249930   0.5052458   0.1241101  )
        27        S      tau(  27) = (  -0.2497899   0.5778453   0.6063597  )
        28        Mo     tau(  28) = (   0.2497834  -0.0005160   0.4806710  )
        29        Mo     tau(  29) = (  -0.2500004   0.7216889  -0.4825273  )
        30        Mo     tau(  30) = (  -0.3750188   0.7938286  -0.0001549  )
        31        S      tau(  31) = (  -0.3750004   0.6495201  -0.6064556  )
        32        S      tau(  32) = (  -0.2500074   0.7216649  -0.1242513  )
        33        S      tau(  33) = (  -0.3752234   0.7935039   0.3566636  )
        34        S      tau(  34) = (  -0.3750004   0.6495200  -0.3584711  )
        35        S      tau(  35) = (  -0.2499996   0.7216607   0.1240200  )
        36        S      tau(  36) = (  -0.3746819   0.7948899   0.6057341  )
        37        Mo     tau(  37) = (   0.3750034   0.2123618   0.4807886  )
        38        Mo     tau(  38) = (   0.3750004   0.0721694  -0.4825273  )
        39        Mo     tau(  39) = (   0.2499981   0.1443415  -0.0000413  )
        40        S      tau(  40) = (   0.2500004   0.0000006  -0.6064556  )
        41        S      tau(  41) = (   0.3750280   0.0722231  -0.1241519  )
        42        S      tau(  42) = (   0.2489233   0.1437373   0.3564531  )
        43        S      tau(  43) = (   0.2500004   0.0000005  -0.3584711  )
        44        S      tau(  44) = (   0.3749877   0.0720947   0.1241383  )
        45        S      tau(  45) = (   0.2497122   0.1423104   0.6055821  )
        46        Mo     tau(  46) = (   0.2490774   0.4329018   0.4862977  )
        47        Mo     tau(  47) = (   0.2500001   0.2886759  -0.4825273  )
        48        Mo     tau(  48) = (   0.1250319   0.3608540  -0.0000126  )
        49        S      tau(  49) = (   0.1250001   0.2165071  -0.6064556  )
        50        S      tau(  50) = (   0.2500259   0.2886851  -0.1240979  )
        51        S      tau(  51) = (   0.1263042   0.3620125   0.3614359  )
        52        S      tau(  52) = (   0.1250002   0.2165070  -0.3584711  )
        53        S      tau(  53) = (   0.2500168   0.2886898   0.1242904  )
        54        S      tau(  54) = (   0.1173694   0.3566575   0.6132890  )
        55        Mo     tau(  55) = (   0.1240062   0.6506471   0.4823696  )
        56        Mo     tau(  56) = (   0.1249998   0.5051824  -0.4825273  )
        57        Mo     tau(  57) = (   0.0000191   0.5773226  -0.0001255  )
        58        S      tau(  58) = (  -0.0000002   0.4330136  -0.6064556  )
        59        S      tau(  59) = (   0.1250359   0.5051398  -0.1241676  )
        60        S      tau(  60) = (   0.0000697   0.5768181   0.3580317  )
[...]
       133        S      tau( 133) = (   0.4999999   0.4330135  -0.3584711  )
       134        S      tau( 134) = (   0.6250095   0.5052263   0.1241915  )
       135        S      tau( 135) = (   0.5006407   0.5846211   0.6091832  )
       136        Mo     tau( 136) = (   0.0000410   0.0004185   0.4809769  )
       137        Mo     tau( 137) = (   0.4999996   0.7216889  -0.4825273  )
       138        Mo     tau( 138) = (   0.3750036   0.7938273  -0.0000272  )
       139        S      tau( 139) = (   0.3749996   0.6495201  -0.6064556  )
       140        S      tau( 140) = (   0.4999499   0.7216482  -0.1241729  )
       141        S      tau( 141) = (   0.3750006   0.7941054   0.3569117  )
       142        S      tau( 142) = (   0.3749996   0.6495200  -0.3584711  )
       143        S      tau( 143) = (   0.5000314   0.7216102   0.1241515  )
       144        S      tau( 144) = (   0.3752329   0.7966920   0.6062052  )
       145        Pt     tau( 145) = (   0.2580795   0.4348292   0.7095693  )
       146        Pd     tau( 146) = (   0.4899479   0.4358638   0.7204770  )
       147        Pt     tau( 147) = (   0.3753372   0.6518264   0.7280829  )

     DFT-D3 Dispersion Correction (3-body terms):
       Reference C6 values for interpolation:

[...]
   -40.6980 -40.6921 -40.6914 -40.6797 -40.6791 -40.6786 -40.6620 -40.6620
   -40.6608 -40.6593 -40.6546 -40.6442 -40.6317 -40.6315 -40.6267 -40.6166
   -40.6139 -40.6085 -40.6062 -40.5900 -40.5873 -40.5791 -40.5666 -40.5572
   -40.5461 -40.5115 -20.2477 -19.9823 -19.9505 -19.9209 -19.7948 -19.7751
   -19.6589 -19.5861 -19.5151 -19.5136 -19.3818 -19.3656 -19.3217 -19.0980
   -19.0310 -18.8413 -18.8292 -18.8269 -18.8148 -18.8140 -18.8096 -18.7938
   -18.7278 -18.7043 -18.6954 -18.6937 -18.6812 -18.6740 -18.6341 -18.6245
   -18.5844 -18.5696 -18.5646 -18.5470 -18.5233 -18.5212 -18.4843 -18.4804
   -18.4561 -18.4364 -18.4179 -18.3970 -18.3630 -18.3343 -18.3077 -18.3045
   -18.2735 -18.2726 -18.2444 -18.2130 -18.2099 -18.2050 -18.2047 -18.2046
   -18.2044 -18.1849 -18.1737 -18.1580 -18.1409 -18.1317 -18.1285 -18.1241
   -18.1241 -18.1114 -18.0951 -18.0873 -18.0725 -18.0709 -18.0613 -18.0505
   -18.0303 -18.0247 -18.0207 -18.0136 -18.0078 -17.9984 -17.9714 -17.9579
   -17.9510 -17.9446 -17.9413 -17.9413 -17.9055 -17.8979 -17.8852 -17.8816
   -17.8813 -17.8757 -17.8656 -17.8652 -17.8595 -17.8525 -17.8225 -17.8216
   -17.7667 -17.7636 -12.3482 -12.2197 -11.9246 -11.8330 -11.8143 -11.7730
   -11.7204 -11.6227 -11.5878 -11.5506 -11.5502 -11.5500 -11.5430 -11.5342
   -11.5210 -11.4770 -11.4670 -11.4637 -11.4519 -11.4487 -11.4274 -11.3982
   -11.3935 -11.3700 -11.3642 -11.3524 -11.3342 -11.3341 -11.3329 -11.2981
   -11.2880 -11.2868 -11.2401 -11.2392 -11.2312 -11.2210 -11.1692 -11.1635
   -11.1348 -11.1057 -11.0984 -11.0587 -11.0378 -11.0097 -10.9967 -10.9958
   -10.9948 -10.9837 -10.9672 -10.9641 -10.9479 -10.9234 -10.9151 -10.9117
   -10.9078 -10.9073 -10.9047 -10.9015 -10.8881 -10.8738 -10.8497 -10.8438
   -10.8413 -10.8346 -10.8059 -10.7457 -10.7201 -10.6855 -10.6160 -10.5812
   -10.5738 -10.5659 -10.5085 -10.4451 -10.3895 -10.3439 -10.2924 -10.2546
   -10.2043 -10.1950 -10.1876 -10.1820 -10.1364 -10.1095 -10.0948 -10.0706
   -10.0501 -10.0295 -10.0228 -10.0158 -10.0125 -10.0034  -9.9999  -9.9907
    -9.9776  -9.9647  -9.9599  -9.9114  -9.9061  -9.9035  -9.8780  -9.8418
    -9.8313  -9.8252  -9.8056  -9.7998  -9.7877  -9.7826  -9.7785  -9.7692
    -9.7611  -9.7443  -9.7439  -9.7063  -9.7057  -9.6861  -9.6848  -9.6444
    -9.6359  -9.6282  -9.6147  -9.6079  -9.5802  -9.5754  -9.5508  -9.5469
    -9.4912  -9.4775  -9.4408  -9.4246  -9.4058  -9.3775  -9.3293  -9.3048
    -9.2861  -9.2817  -9.2445  -9.2374  -9.2272  -9.2208  -9.2113  -9.2005
    -9.1874  -9.1851  -9.1801  -9.1361  -9.1242  -9.1214  -9.1130  -9.1035
    -9.0977  -9.0753  -9.0665  -9.0570  -9.0525  -9.0364  -9.0298  -9.0204
    -9.0178  -9.0095  -9.0063  -9.0001  -8.9630  -8.9625  -8.9455  -8.9428
[...]
    -3.8399  -3.8064  -3.7743  -3.7079  -3.6956  -3.6861  -3.6745  -3.6704
    -3.6638  -3.6567  -3.6564  -3.6477  -3.6442  -3.6070  -3.5905  -3.5773
    -3.5691  -3.5663  -3.5602  -3.5555  -3.5476  -3.5414  -3.5378  -3.5076
    -3.4845  -3.4722  -3.4584  -3.4466  -3.4320  -3.4241  -3.4240  -3.4152
    -3.3978  -3.3933  -3.3848  -3.3833  -3.3709  -3.3622  -3.3492  -3.3478
    -3.3474  -3.3470  -3.3345  -3.3228  -3.3142  -3.3047  -3.3005  -3.2882
    -3.2775  -3.2750  -3.2677  -3.2570  -3.2568  -3.2415  -3.2131  -3.2041
    -3.2027  -3.1881  -3.1628  -3.1439  -3.1412  -3.1374  -3.1146  -3.1036
    -3.1004  -3.0940  -3.0851  -3.0841  -3.0835  -3.0685  -3.0539  -3.0496
    -3.0354  -3.0340  -3.0214  -3.0169  -3.0038  -3.0032  -2.9945  -2.9858
    -2.9717  -2.9705  -2.9652  -2.9571  -2.9476  -2.9369  -2.9343  -2.9081
    -2.8960  -2.8879  -2.8751  -2.8749  -2.8398  -2.8288  -2.8050  -2.7910
    -2.7768  -2.7385  -2.7320  -2.7274  -2.7213  -2.7165  -2.7031  -2.6471
    -2.6379  -2.6027  -2.5988  -2.5903  -2.5728  -2.5631  -2.5503  -2.4725
    -2.4429  -2.4428  -2.4301  -2.3899  -2.3791  -2.3697

     the Fermi energy is    -4.7801 ev

!    total energy              =  -27706.46930916 Ry
     total all-electron energy =   -549111.731748 Ry
     estimated scf accuracy    <          2.6E-09 Ry
     smearing contrib. (-TS)   =      -0.00000036 Ry
     internal energy E=F+TS    =  -27706.46930880 Ry

     The total energy is F=E-TS. E is the sum of the following terms:
     one-electron contribution =  524778.48714903 Ry
     hartree contribution      = -262574.31002130 Ry
     xc contribution           =   -1610.36194963 Ry
     ewald contribution        = -271516.55210750 Ry
     DFT-D3 Dispersion         =      -4.06537996 Ry
     one-center paw contrib.   =  -16779.66699943 Ry

     convergence has been achieved in  11 iterations

     negative rho (up, down):  9.196E-04 0.000E+00

     Forces acting on atoms (cartesian axes, Ry/au):

     atom    1 type  1   force =    -0.00010972    0.00005370    0.00000817
     atom    2 type  1   force =    -0.00000043    0.00000222    0.00190219
     atom    3 type  1   force =    -0.00000889   -0.00000455    0.00000004
     atom    4 type  2   force =    -0.00000065    0.00000173   -0.00328042
     atom    5 type  2   force =    -0.00000090   -0.00000723    0.00001779
     atom    6 type  2   force =    -0.00006375   -0.00016296   -0.00003856
     atom    7 type  2   force =    -0.00000381    0.00000129    0.00150473
     atom    8 type  2   force =    -0.00001496   -0.00000837   -0.00001478
     atom    9 type  2   force =    -0.00016332    0.00024444    0.00016707
     atom   10 type  1   force =     0.00004162    0.00007067   -0.00004682
     atom   11 type  1   force =    -0.00000009    0.00000210    0.00189856
     atom   12 type  1   force =    -0.00000008    0.00000048    0.00001266
     atom   13 type  2   force =    -0.00000065    0.00000159   -0.00327966
     atom   14 type  2   force =    -0.00002027    0.00000693   -0.00000471
     atom   15 type  2   force =     0.00005656    0.00009881   -0.00026739
     atom   16 type  2   force =    -0.00000061    0.00000287    0.00151941
     atom   17 type  2   force =     0.00001670   -0.00000762   -0.00000385
     atom   18 type  2   force =     0.00001923    0.00006497    0.00005182
     atom   19 type  1   force =    -0.00001757   -0.00006026   -0.00010690
     atom   20 type  1   force =    -0.00000045    0.00000096    0.00190220
     atom   21 type  1   force =    -0.00000892    0.00000481    0.00001397
     atom   22 type  2   force =    -0.00000046    0.00000162   -0.00328020
     atom   23 type  2   force =     0.00000177   -0.00000449    0.00001104
     atom   24 type  2   force =    -0.00003717    0.00002711   -0.00020851
     atom   25 type  2   force =    -0.00000391   -0.00000411    0.00150092
     atom   26 type  2   force =    -0.00000414    0.00000209   -0.00002829
     atom   27 type  2   force =     0.00002186    0.00003692    0.00009830
     atom   28 type  1   force =    -0.00012551   -0.00006185   -0.00008032
     atom   29 type  1   force =     0.00000001    0.00000264    0.00190008
     atom   30 type  1   force =     0.00000164   -0.00000787   -0.00000049
     atom   31 type  2   force =    -0.00000037    0.00000163   -0.00327932
     atom   32 type  2   force =     0.00001343   -0.00000031    0.00002855
     atom   33 type  2   force =    -0.00045952   -0.00001711   -0.00016284
     atom   34 type  2   force =    -0.00000483   -0.00000214    0.00150531
     atom   35 type  2   force =    -0.00000611    0.00001062    0.00001821
     atom   36 type  2   force =     0.00005274   -0.00003865    0.00027681
     atom   37 type  1   force =     0.00004024   -0.00014272   -0.00030992
     atom   38 type  1   force =    -0.00000140    0.00000121    0.00189941
     atom   39 type  1   force =    -0.00000472    0.00000591   -0.00000977
     atom   40 type  2   force =    -0.00000084    0.00000145   -0.00328054
     atom   41 type  2   force =    -0.00000314    0.00000774   -0.00000696
     atom   42 type  2   force =     0.00027683    0.00007601    0.00015917
     atom   43 type  2   force =    -0.00000050    0.00000569    0.00149944
     atom   44 type  2   force =     0.00000092    0.00002226   -0.00002562
     atom   45 type  2   force =     0.00013266    0.00014396   -0.00009960
     atom   46 type  1   force =     0.00012064   -0.00024273   -0.00014225
     atom   47 type  1   force =    -0.00000217    0.00000137    0.00189535
     atom   48 type  1   force =     0.00000502    0.00001421   -0.00000967
     atom   49 type  2   force =    -0.00000095    0.00000133   -0.00328034
     atom   50 type  2   force =    -0.00000668   -0.00000651   -0.00000820
     atom   51 type  2   force =     0.00033184    0.00020440    0.00003317
     atom   52 type  2   force =     0.00000196    0.00000631    0.00150098
     atom   53 type  2   force =     0.00001193    0.00001970   -0.00002947
     atom   54 type  2   force =     0.00008774    0.00012150   -0.00017531
     atom   55 type  1   force =    -0.00005465    0.00003261   -0.00014767
     atom   56 type  1   force =    -0.00000142   -0.00000085    0.00189626
     atom   57 type  1   force =     0.00000739    0.00000916    0.00002027
     atom   58 type  2   force =    -0.00000101    0.00000160   -0.00328036
     atom   59 type  2   force =    -0.00002798    0.00000914    0.00001922
     atom   60 type  2   force =     0.00002929   -0.00006238   -0.00021162
[...]
     atom  133 type  2   force =    -0.00000329   -0.00000200    0.00149228
     atom  134 type  2   force =    -0.00003186   -0.00000101    0.00002923
     atom  135 type  2   force =     0.00025783   -0.00043154    0.00016292
     atom  136 type  1   force =    -0.00011341   -0.00003706    0.00016796
     atom  137 type  1   force =    -0.00000161    0.00000208    0.00189709
     atom  138 type  1   force =    -0.00000304    0.00000289    0.00002239
     atom  139 type  2   force =    -0.00000078    0.00000176   -0.00328022
     atom  140 type  2   force =    -0.00001352    0.00001550    0.00001809
     atom  141 type  2   force =     0.00002958    0.00028733   -0.00035794
     atom  142 type  2   force =    -0.00000080   -0.00000024    0.00149842
     atom  143 type  2   force =     0.00000186   -0.00002074   -0.00001103
     atom  144 type  2   force =    -0.00002278   -0.00044529    0.00006237
     atom  145 type  3   force =    -0.00033774    0.00075312    0.00003503
     atom  146 type  4   force =     0.00020034    0.00012323   -0.00020615
     atom  147 type  3   force =    -0.00003366   -0.00041568    0.00056973

     Total force =     0.002554     Total SCF correction =     0.000392
     SCF correction compared to forces is large: reduce conv_thr to get better values
     Energy error            =      1.5E-05 Ry
     Gradient error          =      9.2E-04 Ry/Bohr

     bfgs converged in  19 scf cycles and  18 bfgs steps
     (criteria: energy <  1.0E-04 Ry, force <  1.0E-03 Ry/Bohr)

     End of BFGS Geometry Optimization

     Final energy             =  -27706.4693091622 Ry

     File ./outdir/pwscf.bfgs deleted, as requested
Begin final coordinates

ATOMIC_POSITIONS (angstrom)
Mo               1.5709717469        2.7248713032        6.0958537233
Mo               1.5769197498        0.9104407117       -6.0872367793    0   0   0
Mo               0.0000369338        1.8208799338       -0.0000201289
S                0.0000044503        0.0000077495       -7.6506323570    0   0   0
S                1.5767132962        0.9106942482       -1.5660907342
S               -0.0008544209        1.8238790072        4.5220876260
S                0.0000053241        0.0000068460       -4.5222282367    0   0   0
S                1.5769913637        0.9102740633        1.5655265911
S                0.0001042507        1.8198905463        7.6666235691
Mo              -0.0080149449        5.4602509869        6.0948480948
Mo               0.0000011799        3.6417399547       -6.0872367793    0   0   0
Mo              -1.5767939451        4.5518610918       -0.0004737683
S               -1.5769141197        2.7313069925       -7.6506323570    0   0   0
S                0.0004555811        3.6415875491       -1.5654581887
S               -1.5739853108        4.5473445699        4.5224815977
S               -1.5769132459        2.7313060890       -4.5222282367    0   0   0
S                0.0005612681        3.6421004598        1.5675796684
S               -1.5774044682        4.5513920892        7.6653038750
Mo              -1.5791567326        8.1924124861        6.0532337787
Mo              -1.5769173901        6.3730391977       -6.0872367793    0   0   0
Mo              -3.1540888325        7.2829842611       -0.0014398631
S               -3.1538326896        5.4626062355       -7.6506323570    0   0   0
S               -1.5767529159        6.3723938454       -1.5666559812
S               -3.1486765559        7.2684689397        4.4917856066
S               -3.1538318159        5.4626053320       -4.5222282367    0   0   0
S               -1.5770635483        6.3727569032        1.5648635733
S               -3.1323012509        7.2945880525        7.6376343336
Mo               3.1529467824        0.0020526743        6.0569558852
Mo              -3.1538359601        9.1043384407       -6.0872367793    0   0   0
Mo              -4.7311009406       10.0145709275       -0.0009020175
S               -4.7307512596        8.1939054785       -7.6506323570    0   0   0
S               -3.1540118076        9.1042700302       -1.5665771439
S               -4.7384723690       10.0293656909        4.4940132329
S               -4.7307503859        8.1939045750       -4.5222282367    0   0   0
S               -3.1539835721        9.1038214537        1.5654905634
S               -4.7098718565       10.0265696704        7.6378315038
Mo               4.7313807420        2.6858318116        6.0652446325
Mo               4.7307503218        0.9104407117       -6.0872367793    0   0   0
Mo               3.1538288291        1.8211686905       -0.0005169837
S                3.1538350223        0.0000077495       -7.6506323570    0   0   0
S                4.7308328602        0.9106320718       -1.5660738711
S                3.1368750866        1.8243091239        4.4957098211
S                3.1538358961        0.0000068460       -4.5222282367    0   0   0
S                4.7308251317        0.9103442215        1.5660459221
S                3.1549660869        1.7972974670        7.6409741511
Mo               3.1277142528        5.4460536424        6.1233157916
Mo               3.1538317519        3.6417399547       -6.0872367793    0   0   0
Mo               1.5773697656        4.5521764057        0.0001448753
S                1.5769164523        2.7313069925       -7.6506323570    0   0   0
S                3.1539519916        3.6419362523       -1.5656306682
S                1.5851732730        4.5556955300        4.5505815441
S                1.5769173261        2.7313060890       -4.5222282367    0   0   0
S                3.1545642607        3.6422775680        1.5678119283
S                1.4906510045        4.4998082278        7.7503402234
Mo               1.5250938242        8.2242986261        6.0560229016
Mo               1.5769131819        6.3730391977       -6.0872367793    0   0   0
Mo               0.0003856787        7.2829109488       -0.0011166830
S               -0.0000021176        5.4626062355       -7.6506323570    0   0   0
S                1.5775157197        6.3725142855       -1.5659818355
S               -0.0123027325        7.2659944428        4.4896591247
[...]
S                6.3076599001        5.4626053320       -4.5222282367    0   0   0
S                7.8839224000        6.3733566782        1.5668515099
S                6.4351861078        7.3353989450        7.6777663580
Mo               0.0036906826        0.0098243377        6.0923357982
Mo               6.3076557559        9.1043384407       -6.0872367793    0   0   0
Mo               4.7308864440       10.0143130493        0.0000327330
S                4.7307404564        8.1939054785       -7.6506323570    0   0   0
S                6.3073547387        9.1041139386       -1.5659998243
S                4.7324732712       10.0055883281        4.5474013004
S                4.7307413301        8.1939045750       -4.5222282367    0   0   0
S                6.3076218358        9.1032929251        1.5674151002
S                4.7331362604       10.1188506683        7.7453967466
Pt               3.2552528212        5.5466983955        8.9947212457
Pd               6.2305579373        5.5101603476        9.0958447138
Pt               4.7073966230        8.0708600333        8.9914629498
End final coordinates

     Writing all to output data dir ./outdir/pwscf.save/ :
     XML data file, charge density, pseudopotentials, collected wavefunctions

     General routines

     Parallel routines

   This run was terminated on:  14:38: 3   1Apr2024

   JOB DONE.