     Program PWSCF v.7.3 starts on  9Mar2024 at  4:24:57

     Waiting for input...
     Reading input from standard input
Warning: card &CELL ignored
Warning: card / ignored

     Current dimensions of program PWSCF are:
     Max number of different atomic species (ntypx) = 10
     Max number of k-points (npk) =  40000
     Max angular momentum in pseudopotentials (lmaxx) =  4
     file Mo.pbe-spn-kjpaw_psl.1.0.0.UPF: wavefunction(s)  4S 4D renormalized
     file S.pbe-n-kjpaw_psl.1.0.0.UPF: wavefunction(s)  3S 3P renormalized
     file Pt.pbe-spfn-kjpaw_psl.1.0.0.UPF: wavefunction(s)  5P 4F renormalized
     file Pd.pbe-spn-kjpaw_psl.1.0.0.UPF: wavefunction(s)  4S 5S 4D renormalized

     R & G space division:  proc/nbgrp/npool/nimage =      36
     Subspace diagonalization in iterative solution of the eigenvalue problem:
     one sub-group per band group will be used

     Using Slab Decomposition

     bravais-lattice index     =            0
     lattice parameter (alat)  =      23.8395  a.u.
     unit-cell volume          =   28182.8498 (a.u.)^3
     number of atoms/cell      =          146
     number of atomic types    =            4
     number of electrons       =      1298.00
     number of Kohn-Sham states=          779
     kinetic-energy cutoff     =      77.0000  Ry
     charge density cutoff     =     539.0000  Ry
     scf convergence threshold =      1.0E-06
     mixing beta               =       0.2000
     number of iterations used =            8  plain     mixing
     energy convergence thresh.=      1.0E-04
     force convergence thresh. =      1.0E-03
     Exchange-correlation= SLA  PW   PBX  PBC
                           (   1   4   3   4   0   0   0)
     nstep                     =         1000

     Effective Screening Medium Method
     Boundary Conditions: Vacuum-Slab-Vacuum
     total charge in unit cell        =   0.0000
     grid points for fit at edges     =        4

     celldm(1)=  23.839504  celldm(2)=   0.000000  celldm(3)=   0.000000
     celldm(4)=   0.000000  celldm(5)=   0.000000  celldm(6)=   0.000000

     crystal axes: (cart. coord. in units of alat)
               a(1) = (   1.000000   0.000000   0.000000 )
               a(2) = (  -0.500001   0.866026   0.000000 )
               a(3) = (   0.000000   0.000000   2.401941 )

     reciprocal axes: (cart. coord. in units 2 pi/alat)
               b(1) = (  1.000000  0.577351  0.000000 )
               b(2) = (  0.000000  1.154700  0.000000 )
               b(3) = (  0.000000  0.000000  0.416330 )

     PseudoPot. # 1 for Mo read from file:
     ./pseudo/Mo.pbe-spn-kjpaw_psl.1.0.0.UPF
     MD5 check sum: 317bf72632116215fd98f72de1686f13
     Pseudo is Projector augmented-wave + core cor, Zval = 14.0
     Generated using 'atomic' code by A. Dal Corso  v.7.2
     Shape of augmentation charge: PSQ
     Using radial grid of 1229 points,  6 beta functions with:
                l(1) =   0
                l(2) =   0
                l(3) =   1
                l(4) =   1
                l(5) =   2
                l(6) =   2
     Q(r) pseudized with 0 coefficients

     PseudoPot. # 2 for S  read from file:
     ./pseudo/S.pbe-n-kjpaw_psl.1.0.0.UPF
     MD5 check sum: 8b7b5302570d38d5e87fed6a1065abda
     Pseudo is Projector augmented-wave + core cor, Zval =  6.0
     Generated using 'atomic' code by A. Dal Corso  v.7.2
     Shape of augmentation charge: PSQ
     Using radial grid of 1151 points,  6 beta functions with:
                l(1) =   0
                l(2) =   0
                l(3) =   1
                l(4) =   1
                l(5) =   2
                l(6) =   2
     Q(r) pseudized with 0 coefficients

     PseudoPot. # 3 for Pt read from file:
     ./pseudo/Pt.pbe-spfn-kjpaw_psl.1.0.0.UPF
     MD5 check sum: 620096ebf4e6ebacc94de60fd67efcb5
     Pseudo is Projector augmented-wave + core cor, Zval = 32.0
     Generated using 'atomic' code by A. Dal Corso  v.7.2
     Shape of augmentation charge: PSQ
     Using radial grid of 1277 points,  8 beta functions with:
                l(1) =   0
                l(2) =   0
                l(3) =   1
                l(4) =   1
                l(5) =   2
                l(6) =   2
                l(7) =   3
                l(8) =   3
     Q(r) pseudized with 0 coefficients

     PseudoPot. # 4 for Pd read from file:
     ./pseudo/Pd.pbe-spn-kjpaw_psl.1.0.0.UPF
     MD5 check sum: a60571a671f2502b8a6a4569d20a6edb
     Pseudo is Projector augmented-wave + core cor, Zval = 18.0
     Generated using 'atomic' code by A. Dal Corso  v.7.2
     Shape of augmentation charge: PSQ
     Using radial grid of 1235 points,  6 beta functions with:
                l(1) =   0
                l(2) =   0
                l(3) =   1
                l(4) =   1
                l(5) =   2
                l(6) =   2
     Q(r) pseudized with 0 coefficients

     atomic species   valence    mass     pseudopotential
     Mo               14.00    95.95000     Mo( 1.00)
     S                 6.00    32.06000     S ( 1.00)
     Pt               32.00   195.08400     Pt( 1.00)
     Pd               18.00   106.42000     Pd( 1.00)

     No symmetry found

   Cartesian axes

     site n.     atom                  positions (alat units)
         1        Mo     tau(   1) = (   0.1245066   0.2151403   0.4829270  )
         2        Mo     tau(   2) = (   0.1250004   0.0721694  -0.4825273  )
         3        Mo     tau(   3) = (   0.0000143   0.1443586  -0.0000404  )
         4        S      tau(   4) = (   0.0000004   0.0000006  -0.6064556  )
         5        S      tau(   5) = (   0.1249859   0.0722111  -0.1241825  )
         6        S      tau(   6) = (   0.0002990   0.1445714   0.3572522  )
         7        S      tau(   7) = (   0.0000004   0.0000005  -0.3584711  )
         8        S      tau(   8) = (   0.1250243   0.0721377   0.1241202  )
         9        S      tau(   9) = (  -0.0011552   0.1430195   0.6061730  )
        10        Mo     tau(  10) = (  -0.0014303   0.4332690   0.4829269  )
        11        Mo     tau(  11) = (   0.0000001   0.2886759  -0.4825273  )
        12        Mo     tau(  12) = (  -0.1249759   0.3608474  -0.0000404  )
        13        S      tau(  13) = (  -0.1249999   0.2165071  -0.6064556  )
        14        S      tau(  14) = (   0.0000250   0.2886908  -0.1241273  )
        15        S      tau(  15) = (  -0.1246483   0.3609863   0.3572522  )
        16        S      tau(  16) = (  -0.1249998   0.2165070  -0.3584711  )
        17        S      tau(  17) = (   0.0000923   0.2887297   0.1242244  )
        18        S      tau(  18) = (  -0.1267194   0.3605027   0.6061730  )
        19        Mo     tau(  19) = (  -0.1251617   0.6496109   0.4820319  )
        20        Mo     tau(  20) = (  -0.1250002   0.5051824  -0.4825273  )
        21        Mo     tau(  21) = (  -0.2500022   0.5773395  -0.0001503  )
        22        S      tau(  22) = (  -0.2500002   0.4330136  -0.6064556  )
        23        S      tau(  23) = (  -0.1249718   0.5051500  -0.1241823  )
        24        S      tau(  24) = (  -0.2500018   0.5776353   0.3574746  )
        25        S      tau(  25) = (  -0.2500001   0.4330135  -0.3584711  )
        26        S      tau(  26) = (  -0.1250162   0.5052198   0.1241203  )
        27        S      tau(  27) = (  -0.2500018   0.5771316   0.6060170  )
        28        Mo     tau(  28) = (   0.2499988  -0.0001852   0.4820322  )
        29        Mo     tau(  29) = (  -0.2500004   0.7216889  -0.4825273  )
        30        Mo     tau(  30) = (  -0.3750121   0.7938628  -0.0001504  )
        31        S      tau(  31) = (  -0.3750004   0.6495201  -0.6064556  )
        32        S      tau(  32) = (  -0.2500022   0.7216884  -0.1242395  )
        33        S      tau(  33) = (  -0.3747547   0.7937137   0.3574746  )
        34        S      tau(  34) = (  -0.3750004   0.6495200  -0.3584711  )
        35        S      tau(  35) = (  -0.2500023   0.7216883   0.1240244  )
        36        S      tau(  36) = (  -0.3751912   0.7939655   0.6060169  )
        37        Mo     tau(  37) = (   0.3754907   0.2151405   0.4829271  )
        38        Mo     tau(  38) = (   0.3750004   0.0721694  -0.4825273  )
        39        Mo     tau(  39) = (   0.2499984   0.1443573  -0.0000731  )
        40        S      tau(  40) = (   0.2500004   0.0000006  -0.6064556  )
        41        S      tau(  41) = (   0.3750112   0.0722112  -0.1241824  )
        42        S      tau(  42) = (   0.2499987   0.1444686   0.3583292  )
        43        S      tau(  43) = (   0.2500004   0.0000005  -0.3584711  )
        44        S      tau(  44) = (   0.3749727   0.0721378   0.1241202  )
        45        S      tau(  45) = (   0.2499989   0.1436262   0.6067914  )
        46        Mo     tau(  46) = (   0.2499982   0.4330120   0.4873213  )
        47        Mo     tau(  47) = (   0.2500001   0.2886759  -0.4825273  )
        48        Mo     tau(  48) = (   0.1250313   0.3608632  -0.0000369  )
        49        S      tau(  49) = (   0.1250001   0.2165071  -0.6064556  )
        50        S      tau(  50) = (   0.2499984   0.2886902  -0.1241509  )
        51        S      tau(  51) = (   0.1269276   0.3619573   0.3622727  )
        52        S      tau(  52) = (   0.1250002   0.2165070  -0.3584711  )
        53        S      tau(  53) = (   0.2499983   0.2886817   0.1242427  )
        54        S      tau(  54) = (   0.1143670   0.3547054   0.6129634  )
        55        Mo     tau(  55) = (   0.1240620   0.6506275   0.4829270  )
        56        Mo     tau(  56) = (   0.1249998   0.5051824  -0.4825273  )
        57        Mo     tau(  57) = (   0.0000150   0.5773409  -0.0000731  )
        58        S      tau(  58) = (  -0.0000002   0.4330136  -0.6064556  )
        59        S      tau(  59) = (   0.1250108   0.5051746  -0.1241509  )
        60        S      tau(  60) = (   0.0001121   0.5772840   0.3583290  )
[...]
       132        S      tau( 132) = (   0.4998845   0.5772841   0.3583289  )
       133        S      tau( 133) = (   0.4999999   0.4330135  -0.3584711  )
       134        S      tau( 134) = (   0.6250119   0.5052197   0.1241202  )
       135        S      tau( 135) = (   0.5006138   0.5777054   0.6067911  )
       136        Mo     tau( 136) = (  -0.0000756   0.0000425   0.4811258  )
       137        Mo     tau( 137) = (   0.4999996   0.7216889  -0.4825273  )
       138        Mo     tau( 138) = (   0.3749875   0.7938333  -0.0000404  )
       139        S      tau( 139) = (   0.3749996   0.6495201  -0.6064556  )
       140        S      tau( 140) = (   0.4999549   0.7216781  -0.1241825  )
       141        S      tau( 141) = (   0.3749453   0.7934797   0.3572516  )
       142        S      tau( 142) = (   0.3749996   0.6495200  -0.3584711  )
       143        S      tau( 143) = (   0.5000375   0.7216816   0.1241203  )
       144        S      tau( 144) = (   0.3755618   0.7955149   0.6061729  )
       145        Pt     tau( 145) = (   0.2499972   0.4330095   0.7045710  )
       146        Pd     tau( 146) = (   0.1245311   0.2151352   0.7398146  )

     DFT-D3 Dispersion Correction (3-body terms):
       Reference C6 values for interpolation:

[...]
   -40.6404 -40.6328 -40.6322 -40.6249 -40.6217 -40.6156 -40.6156 -40.6100
   -40.6044 -40.5859 -40.5854 -40.5849 -40.5829 -40.5755 -40.5733 -40.5697
   -40.5521 -40.5496 -40.5444 -40.5309 -40.5212 -40.5054 -40.4799 -20.0139
   -19.9156 -19.8987 -19.8099 -19.7404 -19.6886 -19.5009 -19.4831 -19.4540
   -19.4017 -19.3141 -19.2839 -19.0880 -18.8430 -18.7921 -18.7765 -18.7735
   -18.7706 -18.7673 -18.7472 -18.7257 -18.6995 -18.6666 -18.6478 -18.6369
   -18.6246 -18.6161 -18.5818 -18.5743 -18.5734 -18.5246 -18.5227 -18.4963
   -18.4845 -18.4610 -18.4450 -18.4338 -18.4258 -18.4000 -18.3560 -18.3312
   -18.3144 -18.3014 -18.2656 -18.2528 -18.2499 -18.2198 -18.2060 -18.1689
   -18.1586 -18.1584 -18.1583 -18.1581 -18.1557 -18.1433 -18.1320 -18.1136
   -18.0967 -18.0846 -18.0823 -18.0799 -18.0767 -18.0733 -18.0453 -18.0427
   -18.0239 -18.0179 -18.0154 -18.0034 -18.0023 -17.9803 -17.9717 -17.9684
   -17.9600 -17.9570 -17.9433 -17.9218 -17.9073 -17.8960 -17.8950 -17.8950
   -17.8925 -17.8550 -17.8432 -17.8353 -17.8351 -17.8216 -17.8193 -17.8187
   -17.8170 -17.7927 -17.7892 -17.7753 -17.7732 -17.7207 -17.7109 -12.0732
   -11.8629 -11.7121 -11.7014 -11.6131 -11.5091 -11.5063 -11.5062 -11.5025
   -11.5008 -11.4807 -11.4687 -11.4335 -11.4298 -11.4153 -11.4063 -11.3954
   -11.3787 -11.3563 -11.3450 -11.3311 -11.3295 -11.3137 -11.3027 -11.2878
   -11.2878 -11.2803 -11.2513 -11.2420 -11.2419 -11.2104 -11.1859 -11.1831
   -11.1823 -11.1523 -11.1117 -11.0397 -11.0318 -11.0212 -11.0082 -10.9938
   -10.9745 -10.9505 -10.9449 -10.9430 -10.9360 -10.9291 -10.8995 -10.8957
   -10.8855 -10.8710 -10.8617 -10.8615 -10.8607 -10.8595 -10.8589 -10.8352
   -10.8269 -10.8142 -10.7994 -10.7958 -10.7899 -10.7828 -10.7477 -10.7158
   -10.6236 -10.6096 -10.5765 -10.5237 -10.5156 -10.4344 -10.4021 -10.3558
   -10.2849 -10.2105 -10.1702 -10.1655 -10.1572 -10.1397 -10.1290 -10.1034
   -10.0869 -10.0654 -10.0206 -10.0064  -9.9946  -9.9722  -9.9684  -9.9618
    -9.9597  -9.9527  -9.9361  -9.9291  -9.9236  -9.9154  -9.8979  -9.8489
    -9.8307  -9.8212  -9.8149  -9.7901  -9.7777  -9.7690  -9.7519  -9.7454
    -9.7438  -9.7343  -9.7279  -9.6970  -9.6931  -9.6854  -9.6787  -9.6754
    -9.6453  -9.6439  -9.6302  -9.6197  -9.5715  -9.5627  -9.5606  -9.5509
    -9.5327  -9.5025  -9.5001  -9.4887  -9.4622  -9.3807  -9.3623  -9.3272
    -9.3098  -9.2907  -9.2536  -9.2368  -9.2259  -9.2005  -9.1786  -9.1673
    -9.1637  -9.1611  -9.1588  -9.1415  -9.1305  -9.1170  -9.1065  -9.0706
    -9.0631  -9.0529  -9.0487  -9.0473  -9.0280  -9.0210  -8.9983  -8.9978
    -8.9883  -8.9772  -8.9728  -8.9663  -8.9624  -8.9620  -8.9459  -8.9397
    -8.9233  -8.9020  -8.8998  -8.8892  -8.8884  -8.8845  -8.8762  -8.8708
    -8.8701  -8.8646  -8.8595  -8.8471  -8.8359  -8.8181  -8.8049  -8.8037
[...]
    -3.7909  -3.7434  -3.7169  -3.6655  -3.6318  -3.6300  -3.6245  -3.6242
    -3.6105  -3.6101  -3.6010  -3.5842  -3.5764  -3.5445  -3.5340  -3.5306
    -3.5244  -3.5195  -3.5101  -3.5099  -3.5009  -3.4925  -3.4894  -3.4590
    -3.4545  -3.4348  -3.4059  -3.3981  -3.3881  -3.3775  -3.3770  -3.3717
    -3.3481  -3.3463  -3.3412  -3.3375  -3.3150  -3.3024  -3.3015  -3.3007
    -3.3004  -3.2929  -3.2820  -3.2712  -3.2665  -3.2551  -3.2460  -3.2407
    -3.2353  -3.2283  -3.2219  -3.2131  -3.2093  -3.1864  -3.1643  -3.1515
    -3.1402  -3.1307  -3.1178  -3.0984  -3.0949  -3.0654  -3.0602  -3.0565
    -3.0525  -3.0387  -3.0384  -3.0377  -3.0372  -3.0091  -2.9958  -2.9907
    -2.9876  -2.9829  -2.9735  -2.9604  -2.9519  -2.9494  -2.9438  -2.9427
    -2.9275  -2.9177  -2.9106  -2.9045  -2.8982  -2.8916  -2.8734  -2.8599
    -2.8397  -2.8325  -2.8299  -2.8285  -2.7963  -2.7737  -2.7631  -2.7409
    -2.7361  -2.6830  -2.6772  -2.6749  -2.6663  -2.6608  -2.6558  -2.5969
    -2.5892  -2.5429  -2.5381  -2.5267  -2.5232  -2.5143  -2.4758  -2.4072
    -2.3897  -2.3859  -2.3364

     the Fermi energy is    -4.6987 ev

!    total energy              =  -26031.80891098 Ry
     total all-electron energy =   -512284.378539 Ry
     estimated scf accuracy    <          2.8E-09 Ry
     smearing contrib. (-TS)   =      -0.00000004 Ry
     internal energy E=F+TS    =  -26031.80891094 Ry

     The total energy is F=E-TS. E is the sum of the following terms:
     one-electron contribution =  491540.87302678 Ry
     hartree contribution      = -245914.16061585 Ry
     xc contribution           =   -1534.65934041 Ry
     ewald contribution        = -253931.10121272 Ry
     DFT-D3 Dispersion         =      -4.02088032 Ry
     one-center paw contrib.   =  -16188.73988843 Ry

     convergence has been achieved in  10 iterations

     negative rho (up, down):  9.248E-04 0.000E+00

     Forces acting on atoms (cartesian axes, Ry/au):

     atom    1 type  1   force =     0.00009308   -0.00007917   -0.00029281
     atom    2 type  1   force =    -0.00000298    0.00000084    0.00189887
     atom    3 type  1   force =    -0.00000739    0.00000351    0.00000012
     atom    4 type  2   force =    -0.00000116   -0.00000076   -0.00327946
     atom    5 type  2   force =    -0.00000884   -0.00000483   -0.00000238
     atom    6 type  2   force =     0.00031387    0.00026289    0.00036139
     atom    7 type  2   force =    -0.00000346    0.00000434    0.00149665
     atom    8 type  2   force =    -0.00000284   -0.00000284    0.00001118
     atom    9 type  2   force =    -0.00010280    0.00003158    0.00014149
     atom   10 type  1   force =     0.00052041   -0.00012358    0.00046765
     atom   11 type  1   force =    -0.00000129   -0.00000190    0.00189562
     atom   12 type  1   force =    -0.00000187   -0.00000170    0.00001290
     atom   13 type  2   force =    -0.00000148   -0.00000067   -0.00327965
     atom   14 type  2   force =    -0.00001638   -0.00000495    0.00001249
     atom   15 type  2   force =    -0.00005180   -0.00005925   -0.00050319
     atom   16 type  2   force =     0.00000224   -0.00000277    0.00151067
     atom   17 type  2   force =     0.00001082    0.00000701    0.00001736
     atom   18 type  2   force =    -0.00000179    0.00031746    0.00002965
     atom   19 type  1   force =    -0.00014336   -0.00002706   -0.00036724
     atom   20 type  1   force =    -0.00000206   -0.00000115    0.00189930
     atom   21 type  1   force =    -0.00001156   -0.00000206    0.00001103
     atom   22 type  2   force =    -0.00000138   -0.00000022   -0.00327950
     atom   23 type  2   force =    -0.00001087   -0.00000379    0.00002594
     atom   24 type  2   force =    -0.00032403   -0.00004382   -0.00003738
     atom   25 type  2   force =     0.00000030   -0.00000261    0.00150058
     atom   26 type  2   force =    -0.00003525   -0.00001236    0.00003920
     atom   27 type  2   force =    -0.00017332   -0.00012514   -0.00019323
     atom   28 type  1   force =     0.00003179   -0.00011885    0.00001990
     atom   29 type  1   force =    -0.00000184   -0.00000137    0.00190287
     atom   30 type  1   force =    -0.00000680   -0.00000039    0.00000148
     atom   31 type  2   force =    -0.00000118   -0.00000031   -0.00327883
     atom   32 type  2   force =     0.00000111    0.00001118    0.00001804
     atom   33 type  2   force =    -0.00012749   -0.00006700   -0.00034613
     atom   34 type  2   force =    -0.00000825   -0.00000169    0.00149445
     atom   35 type  2   force =    -0.00001575    0.00000262    0.00001138
     atom   36 type  2   force =     0.00001490    0.00002402    0.00017534
     atom   37 type  1   force =     0.00023856   -0.00003183   -0.00004468
     atom   38 type  1   force =    -0.00000067    0.00000133    0.00190000
     atom   39 type  1   force =    -0.00000121   -0.00001113   -0.00000458
     atom   40 type  2   force =    -0.00000099   -0.00000068   -0.00327836
     atom   41 type  2   force =    -0.00001346   -0.00002267   -0.00000528
     atom   42 type  2   force =    -0.00014064    0.00008353    0.00035441
     atom   43 type  2   force =    -0.00000204    0.00000790    0.00150287
     atom   44 type  2   force =     0.00001368    0.00001990    0.00001029
     atom   45 type  2   force =    -0.00029362    0.00017122    0.00026676
     atom   46 type  1   force =     0.00020340   -0.00002123   -0.00010904
     atom   47 type  1   force =    -0.00000201    0.00000033    0.00189476
     atom   48 type  1   force =    -0.00001034    0.00001522   -0.00000541
     atom   49 type  2   force =    -0.00000119   -0.00000074   -0.00327972
     atom   50 type  2   force =    -0.00003190   -0.00000225   -0.00000884
     atom   51 type  2   force =    -0.00018750   -0.00036280    0.00053958
     atom   52 type  2   force =    -0.00000387    0.00000585    0.00149735
     atom   53 type  2   force =    -0.00000017    0.00000480   -0.00000230
     atom   54 type  2   force =     0.00075314   -0.00055969    0.00076742
     atom   55 type  1   force =    -0.00001487    0.00003729   -0.00026535
     atom   56 type  1   force =     0.00000031   -0.00000091    0.00189341
     atom   57 type  1   force =    -0.00002008    0.00000055    0.00003790
     atom   58 type  2   force =    -0.00000153   -0.00000025   -0.00327939
     atom   59 type  2   force =    -0.00001618    0.00002240    0.00002450
     atom   60 type  2   force =     0.00000687    0.00057783   -0.00037632
[...]
     atom  132 type  2   force =    -0.00012400    0.00017992    0.00007509
     atom  133 type  2   force =    -0.00000758   -0.00000398    0.00150104
     atom  134 type  2   force =    -0.00001477   -0.00001352    0.00000484
     atom  135 type  2   force =    -0.00000567   -0.00014161   -0.00010177
     atom  136 type  1   force =    -0.00007992   -0.00011604    0.00010520
     atom  137 type  1   force =    -0.00000303   -0.00000058    0.00189981
     atom  138 type  1   force =    -0.00000552   -0.00000734    0.00000696
     atom  139 type  2   force =    -0.00000096   -0.00000018   -0.00327946
     atom  140 type  2   force =     0.00000619   -0.00000506    0.00001540
     atom  141 type  2   force =    -0.00017784    0.00004714   -0.00012888
     atom  142 type  2   force =    -0.00000544   -0.00000489    0.00149089
     atom  143 type  2   force =     0.00000606   -0.00000407    0.00001743
     atom  144 type  2   force =    -0.00035991   -0.00016494    0.00018243
     atom  145 type  3   force =    -0.00021436    0.00002642    0.00070738
     atom  146 type  4   force =    -0.00012575    0.00000934   -0.00029555

     Total force =     0.002876     Total SCF correction =     0.000240
     Energy error            =      1.8E-05 Ry
     Gradient error          =      7.7E-04 Ry/Bohr

     bfgs converged in  20 scf cycles and  19 bfgs steps
     (criteria: energy <  1.0E-04 Ry, force <  1.0E-03 Ry/Bohr)

     End of BFGS Geometry Optimization

     Final energy             =  -26031.8089109812 Ry

     File ./outdir/pwscf.bfgs deleted, as requested
Begin final coordinates

ATOMIC_POSITIONS (angstrom)
Mo               1.5657036617        2.7140631878        6.1256646216
Mo               1.5769197498        0.9104407117       -6.0872367793    0   0   0
Mo               0.0002740009        1.8209966512        0.0001977710
S                0.0000044503        0.0000077495       -7.6506323570    0   0   0
S                1.5765770638        0.9110986572       -1.5663087183
S                0.0134906314        1.8236345810        4.5434754999
S                0.0000053241        0.0000068460       -4.5222282367    0   0   0
S                1.5774528100        0.9100591533        1.5666131206
S               -0.0637127863        1.7766716178        7.7095169773
Mo              -0.0477742042        5.4888811139        6.0641288463
Mo               0.0000011799        3.6417399547       -6.0872367793    0   0   0
Mo              -1.5768491247        4.5520091058        0.0000184235
S               -1.5769141197        2.7313069925       -7.6506323570    0   0   0
S                0.0001388487        3.6417580622       -1.5652037238
S               -1.5918358884        4.5441313430        4.4954233565
S               -1.5769132459        2.7313060890       -4.5222282367    0   0   0
S                0.0006509914        3.6419149756        1.5680646591
S               -1.6051375211        4.5589166805        7.6385074811
Mo              -1.5802286591        8.1998687333        6.0679437414
Mo              -1.5769173901        6.3730391977       -6.0872367793    0   0   0
Mo              -3.1537902752        7.2834621469       -0.0018252905
S               -3.1538326896        5.4626062355       -7.6506323570    0   0   0
S               -1.5763555072        6.3724774896       -1.5662124963
S               -3.1605519111        7.2887375562        4.5025490554
S               -3.1538318159        5.4626053320       -4.5222282367    0   0   0
S               -1.5771783451        6.3735835334        1.5660996790
S               -3.1527707441        7.2821505579        7.6377065260
Mo               3.1600712063       -0.0139071045        6.0820685105
Mo              -3.1538359601        9.1043384407       -6.0872367793    0   0   0
Mo              -4.7309007666       10.0149280308       -0.0017108938
S               -4.7307512596        8.1939054785       -7.6506323570    0   0   0
S               -3.1539135884        9.1044133498       -1.5673658687
S               -4.7345914712       10.0155748780        4.5151235358
S               -4.7307503859        8.1939045750       -4.5222282367    0   0   0
S               -3.1539528641        9.1044947849        1.5647748914
S               -4.7267470215       10.0094807260        7.6496326256
Mo               4.7526286840        2.7139578730        6.0951704653
Mo               4.7307503218        0.9104407117       -6.0872367793    0   0   0
Mo               3.1535936120        1.8213021892       -0.0007852356
S                3.1538350223        0.0000077495       -7.6506323570    0   0   0
S                4.7308321502        0.9112765497       -1.5663575302
S                3.1448523667        1.8283691842        4.5486325229
S                3.1538358961        0.0000068460       -4.5222282367    0   0   0
S                4.7296949466        0.9104804438        1.5663688638
S                3.2280066740        1.7683974831        7.6850249137
Mo               3.1562029267        5.4724097169        6.1353827076
Mo               3.1538317519        3.6417399547       -6.0872367793    0   0   0
Mo               1.5771359405        4.5520714297        0.0002505918
S                1.5769164523        2.7313069925       -7.6506323570    0   0   0
S                3.1535325752        3.6420914603       -1.5660043432
S                1.5910271414        4.5506835485        4.5775235915
S                1.5769173261        2.7313060890       -4.5222282367    0   0   0
S                3.1540010509        3.6416587026        1.5676358232
S                1.4227573365        4.5927423150        7.6796241855
Mo               1.5708723917        8.2030345810        6.0924494181
Mo               1.5769131819        6.3730391977       -6.0872367793    0   0   0
Mo               0.0002863058        7.2834122307       -0.0005607261
S               -0.0000021176        5.4626062355       -7.6506323570    0   0   0
S                1.5770994458        6.3726095841       -1.5655776394
S                0.0007911343        7.2999107637        4.4996974771
[...]
S                6.3021169629        7.2845534648        4.5191022712
S                6.3076599001        5.4626053320       -4.5222282367    0   0   0
S                7.8844781202        6.3735353475        1.5653932929
S                6.3166217246        7.2848601440        7.6561588696
Mo              -0.0052346298       -0.0064223030        6.0903538599
Mo               6.3076557559        9.1043384407       -6.0872367793    0   0   0
Mo               4.7308253057       10.0145658491        0.0000169231
S                4.7307404564        8.1939054785       -7.6506323570    0   0   0
S                6.3070002806        9.1045501336       -1.5666499498
S                4.7345979753       10.0089117249        4.5180225677
S                4.7307413301        8.1939045750       -4.5222282367    0   0   0
S                6.3083660092        9.1039565105        1.5657933831
S                4.7286072046       10.0221665404        7.6617699798
Pt               3.1186197658        5.3605344898        8.9469545725
Pd               1.6696914521        2.8233618428        9.0887851968
End final coordinates

     Writing all to output data dir ./outdir/pwscf.save/ :
     XML data file, charge density, pseudopotentials, collected wavefunctions

     General routines

     Parallel routines

   This run was terminated on:   5: 5:48  10Mar2024

   JOB DONE.