     Program PWSCF v.7.2 starts on 15Dec2023 at 12:22:47

     Waiting for input...
     Reading input from standard input
Warning: card &CELL ignored
Warning: card / ignored

     Current dimensions of program PWSCF are:
     Max number of different atomic species (ntypx) = 10
     Max number of k-points (npk) =  40000
     Max angular momentum in pseudopotentials (lmaxx) =  4
     file Mo.pbe-spn-kjpaw_psl.1.0.0.UPF: wavefunction(s)  4S 4D renormalized
     file S.pbe-n-kjpaw_psl.1.0.0.UPF: wavefunction(s)  3S 3P renormalized
     file Pt.pbe-spfn-kjpaw_psl.1.0.0.UPF: wavefunction(s)  5P 4F renormalized

     R & G space division:  proc/nbgrp/npool/nimage =      36
     Subspace diagonalization in iterative solution of the eigenvalue problem:
     one sub-group per band group will be used

     Using Slab Decomposition

     bravais-lattice index     =            0
     lattice parameter (alat)  =      23.8199  a.u.
     unit-cell volume          =   33861.0370 (a.u.)^3
     number of atoms/cell      =          193
     number of atomic types    =            3
     number of electrons       =      1696.00
     number of Kohn-Sham states=         1018
     kinetic-energy cutoff     =      77.0000  Ry
     charge density cutoff     =     539.0000  Ry
     scf convergence threshold =      1.0E-06
     mixing beta               =       0.2000
     number of iterations used =            8  plain     mixing
     energy convergence thresh.=      1.0E-04
     force convergence thresh. =      1.0E-03
     Exchange-correlation= SLA  PW   PBX  PBC
                           (   1   4   3   4   0   0   0)
     nstep                     =         1000

     Effective Screening Medium Method
     Boundary Conditions: Vacuum-Slab-Vacuum
     total charge in unit cell        =   0.0000
     grid points for fit at edges     =        4

     celldm(1)=  23.819920  celldm(2)=   0.000000  celldm(3)=   0.000000
     celldm(4)=   0.000000  celldm(5)=   0.000000  celldm(6)=   0.000000

     crystal axes: (cart. coord. in units of alat)
               a(1) = (   1.000000   0.000000   0.000000 )
               a(2) = (  -0.499999   0.866026   0.000000 )
               a(3) = (   0.000000   0.000000   2.893000 )

     reciprocal axes: (cart. coord. in units 2 pi/alat)
               b(1) = (  1.000000  0.577349  0.000000 )
               b(2) = (  0.000000  1.154700  0.000000 )
               b(3) = (  0.000000  0.000000  0.345662 )

     PseudoPot. # 1 for Mo read from file:
     ./pseudo/Mo.pbe-spn-kjpaw_psl.1.0.0.UPF
     MD5 check sum: 317bf72632116215fd98f72de1686f13
     Pseudo is Projector augmented-wave + core cor, Zval = 14.0
     Generated using 'atomic' code by A. Dal Corso  v.7.2
     Shape of augmentation charge: PSQ
     Using radial grid of 1229 points,  6 beta functions with:
                l(1) =   0
                l(2) =   0
                l(3) =   1
                l(4) =   1
                l(5) =   2
                l(6) =   2
     Q(r) pseudized with 0 coefficients

     PseudoPot. # 2 for S  read from file:
     ./pseudo/S.pbe-n-kjpaw_psl.1.0.0.UPF
     MD5 check sum: 8b7b5302570d38d5e87fed6a1065abda
     Pseudo is Projector augmented-wave + core cor, Zval =  6.0
     Generated using 'atomic' code by A. Dal Corso  v.7.2
     Shape of augmentation charge: PSQ
     Using radial grid of 1151 points,  6 beta functions with:
                l(1) =   0
                l(2) =   0
                l(3) =   1
                l(4) =   1
                l(5) =   2
                l(6) =   2
     Q(r) pseudized with 0 coefficients

     PseudoPot. # 3 for Pt read from file:
     ./pseudo/Pt.pbe-spfn-kjpaw_psl.1.0.0.UPF
     MD5 check sum: 620096ebf4e6ebacc94de60fd67efcb5
     Pseudo is Projector augmented-wave + core cor, Zval = 32.0
     Generated using 'atomic' code by A. Dal Corso  v.7.2
     Shape of augmentation charge: PSQ
     Using radial grid of 1277 points,  8 beta functions with:
                l(1) =   0
                l(2) =   0
                l(3) =   1
                l(4) =   1
                l(5) =   2
                l(6) =   2
                l(7) =   3
                l(8) =   3
     Q(r) pseudized with 0 coefficients

     atomic species   valence    mass     pseudopotential
        Mo            14.00    95.95000     Mo( 1.00)
        S              6.00    32.06000     S ( 1.00)
        Pt            32.00   195.08400     Pt( 1.00)

     No symmetry found

   Cartesian axes

     site n.     atom                  positions (alat units)
         1           Mo  tau(   1) = (   0.0000010   0.1443372  -0.7272732  )
         2           Mo  tau(   2) = (   0.1249995   0.0721706  -0.2424038  )
         3           S   tau(   3) = (   0.0000015   0.1443386  -0.3667807  )
         4           S   tau(   4) = (   0.1250010   0.0721682  -0.6030489  )
         5           S   tau(   5) = (   0.1250010   0.0721683  -0.8514963  )
         6           S   tau(   6) = (   0.0000015   0.1443389  -0.1180260  )
         7           Mo  tau(   7) = (   0.0000041   0.1443345   0.2424023  )
         8           Mo  tau(   8) = (   0.1250030   0.0721700   0.7272501  )
         9           S   tau(   9) = (   0.0000038   0.1443392   0.6028599  )
        10           S   tau(  10) = (   0.1250037   0.0721683   0.3667755  )
        11           S   tau(  11) = (   0.1250033   0.0721688   0.1180247  )
        12           S   tau(  12) = (   0.0000038   0.1443391   0.8517304  )
        13           Mo  tau(  13) = (  -0.1249989   0.3608437  -0.7272732  )
        14           Mo  tau(  14) = (   0.0000030   0.2886752  -0.2424042  )
        15           S   tau(  15) = (  -0.1249977   0.3608450  -0.3667802  )
        16           S   tau(  16) = (   0.0000012   0.2886747  -0.6030489  )
        17           S   tau(  17) = (   0.0000012   0.2886748  -0.8514963  )
        18           S   tau(  18) = (  -0.1249977   0.3608454  -0.1180274  )
        19           Mo  tau(  19) = (  -0.1249981   0.3608444   0.2424011  )
        20           Mo  tau(  20) = (   0.0000038   0.2886765   0.7272499  )
        21           S   tau(  21) = (  -0.1249961   0.3608457   0.6028596  )
        22           S   tau(  22) = (   0.0000037   0.2886752   0.3667739  )
        23           S   tau(  23) = (   0.0000035   0.2886747   0.1180263  )
        24           S   tau(  24) = (  -0.1249962   0.3608459   0.8517305  )
        25           Mo  tau(  25) = (  -0.2499987   0.5773502  -0.7272732  )
        26           Mo  tau(  26) = (  -0.1249977   0.5051839  -0.2424055  )
        27           S   tau(  27) = (  -0.2499981   0.5773518  -0.3667809  )
        28           S   tau(  28) = (  -0.1249986   0.5051812  -0.6030489  )
        29           S   tau(  29) = (  -0.1249986   0.5051813  -0.8514963  )
        30           S   tau(  30) = (  -0.2499979   0.5773512  -0.1180266  )
        31           Mo  tau(  31) = (  -0.2499983   0.5773503   0.2424020  )
        32           Mo  tau(  32) = (  -0.1249962   0.5051830   0.7272501  )
        33           S   tau(  33) = (  -0.2499958   0.5773522   0.6028593  )
        34           S   tau(  34) = (  -0.1249963   0.5051821   0.3667746  )
        35           S   tau(  35) = (  -0.1249968   0.5051820   0.1180254  )
        36           S   tau(  36) = (  -0.2499959   0.5773522   0.8517307  )
        37           Mo  tau(  37) = (  -0.3749985   0.7938567  -0.7272732  )
        38           Mo  tau(  38) = (  -0.2500001   0.7216874  -0.2424031  )
        39           S   tau(  39) = (  -0.3749980   0.7938584  -0.3667800  )
        40           S   tau(  40) = (  -0.2499984   0.7216877  -0.6030489  )
        41           S   tau(  41) = (  -0.2499984   0.7216878  -0.8514963  )
        42           S   tau(  42) = (  -0.3749982   0.7938585  -0.1180264  )
        43           Mo  tau(  43) = (  -0.3749976   0.7938584   0.2424002  )
        44           Mo  tau(  44) = (  -0.2499965   0.7216896   0.7272502  )
        45           S   tau(  45) = (  -0.3749954   0.7938586   0.6028596  )
        46           S   tau(  46) = (  -0.2499962   0.7216890   0.3667741  )
        47           S   tau(  47) = (  -0.2499961   0.7216884   0.1180258  )
        48           S   tau(  48) = (  -0.3749955   0.7938585   0.8517305  )
        49           Mo  tau(  49) = (   0.2500010   0.1443372  -0.7272732  )
        50           Mo  tau(  50) = (   0.3750034   0.0721723  -0.2424032  )
        51           S   tau(  51) = (   0.2500017   0.1443391  -0.3667788  )
        52           S   tau(  52) = (   0.3750010   0.0721682  -0.6030489  )
        53           S   tau(  53) = (   0.3750010   0.0721683  -0.8514963  )
        54           S   tau(  54) = (   0.2500016   0.1443391  -0.1180271  )
        55           Mo  tau(  55) = (   0.2500037   0.1443371   0.2424008  )
        56           Mo  tau(  56) = (   0.3750049   0.0721708   0.7272499  )
        57           S   tau(  57) = (   0.2500041   0.1443391   0.6028593  )
        58           S   tau(  58) = (   0.3750026   0.0721682   0.3667763  )
        59           S   tau(  59) = (   0.3750033   0.0721687   0.1180242  )
        60           S   tau(  60) = (   0.2500040   0.1443392   0.8517310  )
[...]
       179           S   tau( 179) = (   0.6250040   0.5051821   0.1180241  )
       180           S   tau( 180) = (   0.5000045   0.5773523   0.8517308  )
       181           Mo  tau( 181) = (   0.3750016   0.7938567  -0.7272732  )
       182           Mo  tau( 182) = (   0.5000025   0.7216901  -0.2424039  )
       183           S   tau( 183) = (   0.3750019   0.7938578  -0.3667793  )
       184           S   tau( 184) = (   0.5000016   0.7216877  -0.6030489  )
       185           S   tau( 185) = (   0.5000016   0.7216878  -0.8514963  )
       186           S   tau( 186) = (   0.3750020   0.7938579  -0.1180272  )
       187           Mo  tau( 187) = (   0.3750057   0.7938586   0.2424015  )
       188           Mo  tau( 188) = (   0.5000052   0.7216902   0.7272503  )
       189           S   tau( 189) = (   0.3750045   0.7938588   0.6028592  )
       190           S   tau( 190) = (   0.5000042   0.7216887   0.3667757  )
       191           S   tau( 191) = (   0.5000039   0.7216887   0.1180242  )
       192           S   tau( 192) = (   0.3750047   0.7938587   0.8517308  )
       193           Pt  tau( 193) = (   0.1250302   0.5051980   0.9707291  )

     DFT-D3 Dispersion Correction (3-body terms):
       Reference C6 values for interpolation:

         atom   Coordination number   C6
         S          0.000           268.01
         S          0.995           261.99
         S          1.990           251.62
         Mo         0.000          1691.79
         Mo         1.942          1004.01
         Mo        11.056           674.22
         Pt         0.000           782.29
         Pt         1.919           692.72
         Pt         6.667           673.75

       Values used:

         atom   Coordination number  R0_AB[au]  C6      C8
         Mo        10.208            3.547    674.22  77634.20
         Mo        10.221            3.547    674.22  77634.20
         S          3.858            3.128    251.62  12327.25
[...]
     atom   15 type  2   force =     0.00000000    0.00000000    0.00000000
     atom   16 type  2   force =     0.00000000    0.00000000    0.00000000
     atom   17 type  2   force =     0.00000000    0.00000000    0.00000000
     atom   18 type  2   force =     0.00000000    0.00000000    0.00000000
     atom   19 type  1   force =    -0.00000556   -0.00000307   -0.00001644
     atom   20 type  1   force =    -0.00000795    0.00000050   -0.00010778
     atom   21 type  2   force =     0.00001083    0.00000645   -0.00001620
     atom   22 type  2   force =     0.00000214   -0.00000237    0.00000666
     atom   23 type  2   force =    -0.00000303   -0.00000061    0.00000133
     atom   24 type  2   force =     0.00000406    0.00000240   -0.00001292
     atom   25 type  1   force =     0.00000000    0.00000000    0.00000000
     atom   26 type  1   force =     0.00000000    0.00000000    0.00000000
     atom   27 type  2   force =     0.00000000    0.00000000    0.00000000
     atom   28 type  2   force =     0.00000000    0.00000000    0.00000000
     atom   29 type  2   force =     0.00000000    0.00000000    0.00000000
     atom   30 type  2   force =     0.00000000    0.00000000    0.00000000
     atom   31 type  1   force =    -0.00001761    0.00001872    0.00001513
     atom   32 type  1   force =    -0.00000415   -0.00000721   -0.00010782
     atom   33 type  2   force =     0.00000509    0.00000143   -0.00001103
     atom   34 type  2   force =    -0.00000101    0.00000291    0.00000674
     atom   35 type  2   force =    -0.00000202   -0.00000236    0.00000138
     atom   36 type  2   force =     0.00000347    0.00001178   -0.00001387
     atom   37 type  1   force =     0.00000000    0.00000000    0.00000000
     atom   38 type  1   force =     0.00000000    0.00000000    0.00000000
     atom   39 type  2   force =     0.00000000    0.00000000    0.00000000
     atom   40 type  2   force =     0.00000000    0.00000000    0.00000000
     atom   41 type  2   force =     0.00000000    0.00000000    0.00000000
     atom   42 type  2   force =     0.00000000    0.00000000    0.00000000
     atom   43 type  1   force =    -0.00000060   -0.00000048    0.00004562
     atom   44 type  1   force =     0.00001692   -0.00001060   -0.00001260
     atom   45 type  2   force =    -0.00000027   -0.00000012   -0.00000981
     atom   46 type  2   force =    -0.00000812    0.00000466   -0.00000923
     atom   47 type  2   force =    -0.00000126    0.00000062    0.00000569
     atom   48 type  2   force =     0.00000003   -0.00000009   -0.00000600
     atom   49 type  1   force =     0.00000000    0.00000000    0.00000000
     atom   50 type  1   force =     0.00000000    0.00000000    0.00000000
     atom   51 type  2   force =     0.00000000    0.00000000    0.00000000
     atom   52 type  2   force =     0.00000000    0.00000000    0.00000000
     atom   53 type  2   force =     0.00000000    0.00000000    0.00000000
     atom   54 type  2   force =     0.00000000    0.00000000    0.00000000
     atom   55 type  1   force =    -0.00000862   -0.00002355    0.00001639
     atom   56 type  1   force =    -0.00000662   -0.00000398   -0.00007591
     atom   57 type  2   force =    -0.00000383    0.00000343   -0.00001128
     atom   58 type  2   force =    -0.00000115   -0.00000049   -0.00000172
     atom   59 type  2   force =    -0.00000464   -0.00000262    0.00000235
     atom   60 type  2   force =    -0.00001203   -0.00000281   -0.00001348
[...]
     atom  179 type  2   force =     0.00000015    0.00000568    0.00000295
     atom  180 type  2   force =    -0.00000338    0.00001170   -0.00001389
     atom  181 type  1   force =     0.00000000    0.00000000    0.00000000
     atom  182 type  1   force =     0.00000000    0.00000000    0.00000000
     atom  183 type  2   force =     0.00000000    0.00000000    0.00000000
     atom  184 type  2   force =     0.00000000    0.00000000    0.00000000
     atom  185 type  2   force =     0.00000000    0.00000000    0.00000000
     atom  186 type  2   force =     0.00000000    0.00000000    0.00000000
     atom  187 type  1   force =     0.00002548    0.00000714    0.00001540
     atom  188 type  1   force =    -0.00001691   -0.00001021   -0.00001351
     atom  189 type  2   force =    -0.00000088   -0.00000499   -0.00001112
     atom  190 type  2   force =     0.00000823    0.00000491   -0.00000900
     atom  191 type  2   force =     0.00000151    0.00000078    0.00000582
     atom  192 type  2   force =     0.00000841   -0.00000884   -0.00001381
     atom  193 type  3   force =    -0.00000255    0.00000103   -0.00077765

     DFT-D3 dispersion contribution to forces:
     atom    1 type  1   force =     0.00000000    0.00000004    0.00255980
     atom    2 type  1   force =    -0.00000000    0.00000009    0.00001466
     atom    3 type  2   force =     0.00000002   -0.00000001   -0.00003310
     atom    4 type  2   force =    -0.00000001   -0.00000001    0.00017153
     atom    5 type  2   force =    -0.00000000   -0.00000003    0.00441525
     atom    6 type  2   force =    -0.00000006    0.00000019    0.00009752
     atom    7 type  1   force =    -0.00000458   -0.00001063   -0.00000966
     atom    8 type  1   force =     0.00000000    0.00010121   -0.00243311
     atom    9 type  2   force =     0.00000953   -0.00000398   -0.00010414
     atom   10 type  2   force =     0.00000000   -0.00002273    0.00003179
     atom   11 type  2   force =    -0.00000000   -0.00000090   -0.00009568
     atom   12 type  2   force =     0.00010519    0.00029581   -0.00430415
     atom   13 type  1   force =     0.00000004    0.00000002    0.00255986
     atom   14 type  1   force =     0.00000004    0.00000010    0.00001488
     atom   15 type  2   force =     0.00000002    0.00000000   -0.00003308
     atom   16 type  2   force =     0.00000000    0.00000001    0.00017158
     atom   17 type  2   force =    -0.00000002    0.00000001    0.00441518
     atom   18 type  2   force =     0.00000023    0.00000011    0.00009758
     atom   19 type  1   force =    -0.00001466   -0.00000847   -0.00002363
     atom   20 type  1   force =     0.00014434    0.00027119   -0.00218847
     atom   21 type  2   force =     0.00002796    0.00001614   -0.00005667
     atom   22 type  2   force =    -0.00000638   -0.00002246    0.00003089
     atom   23 type  2   force =     0.00000005   -0.00000052   -0.00009969
     atom   24 type  2   force =     0.00046758    0.00026995   -0.00420295
     atom   25 type  1   force =     0.00000003   -0.00000002    0.00255979
     atom   26 type  1   force =     0.00000013   -0.00000003    0.00001485
     atom   27 type  2   force =     0.00000001    0.00000002   -0.00003311
     atom   28 type  2   force =     0.00000001   -0.00000000    0.00017157
     atom   29 type  2   force =    -0.00000000   -0.00000002    0.00441518
     atom   30 type  2   force =     0.00000014   -0.00000015    0.00009752
     atom   31 type  1   force =    -0.00001150    0.00000134   -0.00000965
     atom   32 type  1   force =     0.00030703   -0.00001060   -0.00218847
     atom   33 type  2   force =     0.00000131    0.00001024   -0.00010414
     atom   34 type  2   force =    -0.00002264    0.00000570    0.00003089
     atom   35 type  2   force =    -0.00000042    0.00000030   -0.00009968
     atom   36 type  2   force =     0.00030877   -0.00005681   -0.00430415
     atom   37 type  1   force =    -0.00000000   -0.00000000    0.00255984
     atom   38 type  1   force =     0.00000006   -0.00000001    0.00001467
     atom   39 type  2   force =     0.00000001    0.00000002   -0.00003308
     atom   40 type  2   force =    -0.00000002    0.00000000    0.00017153
     atom   41 type  2   force =    -0.00000003    0.00000002    0.00441525
     atom   42 type  2   force =     0.00000001    0.00000002    0.00009757
     atom   43 type  1   force =    -0.00000000    0.00000000    0.00000444
     atom   44 type  1   force =     0.00008764   -0.00005060   -0.00243311
     atom   45 type  2   force =    -0.00000000   -0.00000000   -0.00014604
     atom   46 type  2   force =    -0.00001969    0.00001137    0.00003179
     atom   47 type  2   force =    -0.00000080    0.00000046   -0.00009567
     atom   48 type  2   force =     0.00000001    0.00000000   -0.00440053
     atom   49 type  1   force =    -0.00000000    0.00000004    0.00255979
     atom   50 type  1   force =     0.00000007    0.00000006    0.00001477
     atom   51 type  2   force =    -0.00000002   -0.00000002   -0.00003309
     atom   52 type  2   force =     0.00000001    0.00000001    0.00017156
     atom   53 type  2   force =     0.00000000    0.00000000    0.00441524
     atom   54 type  2   force =     0.00000007    0.00000019    0.00009751
     atom   55 type  1   force =     0.00000459   -0.00001062   -0.00000966
     atom   56 type  1   force =    -0.00001543   -0.00000890   -0.00244519
     atom   57 type  2   force =    -0.00000952   -0.00000398   -0.00010414
     atom   58 type  2   force =    -0.00000181   -0.00000104    0.00003885
     atom   59 type  2   force =    -0.00000022   -0.00000012   -0.00009518
     atom   60 type  2   force =    -0.00010518    0.00029581   -0.00430416
[...]
     atom  179 type  2   force =    -0.00000002    0.00000026   -0.00009517
     atom  180 type  2   force =    -0.00030877   -0.00005681   -0.00430415
     atom  181 type  1   force =    -0.00000003   -0.00000002    0.00255981
     atom  182 type  1   force =    -0.00000012   -0.00000004    0.00001466
     atom  183 type  2   force =    -0.00000001   -0.00000002   -0.00003309
     atom  184 type  2   force =     0.00000001    0.00000001    0.00017155
     atom  185 type  2   force =     0.00000003    0.00000002    0.00441525
     atom  186 type  2   force =    -0.00000023   -0.00000004    0.00009750
     atom  187 type  1   force =     0.00000690    0.00000928   -0.00000966
     atom  188 type  1   force =    -0.00008764   -0.00005060   -0.00243311
     atom  189 type  2   force =     0.00000821   -0.00000626   -0.00010414
     atom  190 type  2   force =     0.00001969    0.00001137    0.00003179
     atom  191 type  2   force =     0.00000078    0.00000046   -0.00009569
     atom  192 type  2   force =    -0.00020358   -0.00023900   -0.00430415
     atom  193 type  3   force =    -0.00000001    0.00000000   -0.00675889

     Total force =     0.001869     Total SCF correction =     0.000868
     SCF correction compared to forces is large: reduce conv_thr to get better values
     Energy error            =      9.6E-06 Ry
     Gradient error          =      9.9E-04 Ry/Bohr

     bfgs converged in  19 scf cycles and  18 bfgs steps
     (criteria: energy <  1.0E-04 Ry, force <  1.0E-03 Ry/Bohr)

     End of BFGS Geometry Optimization

     Final energy             =  -33468.3364141537 Ry

     File ./outdir/pwscf.bfgs deleted, as requested
Begin final coordinates

ATOMIC_POSITIONS (angstrom)
Mo            0.0000119917        1.8193638619       -9.1672481230    0   0   0
Mo            1.5756136568        0.9097075315       -3.0554901653    0   0   0
S             0.0000188998        1.8193822938       -4.6232556019    0   0   0
S             1.5756321638        0.9096773839       -7.6014065489    0   0   0
S             1.5756326175        0.9096785128      -10.7330757790    0   0   0
S             0.0000189190        1.8193860094       -1.4877129945    0   0   0
Mo            0.0000177031        1.8196724542        3.0558901650
Mo            1.5756721726        0.9079489759        9.1562279759
S             0.0008060353        1.8239426431        7.5882126078
S             1.5756578018        0.9096365801        4.6229671663
S             1.5756583695        0.9100660872        1.4879561498
S            -0.0069730089        1.7984310010       10.7307291613
Mo           -1.5756053507        4.5484193819       -9.1672481230    0   0   0
Mo            0.0000378379        3.6387394919       -3.0554952701    0   0   0
S            -1.5755913433        4.5484363582       -4.6232494962    0   0   0
S             0.0000148214        3.6387329039       -7.6014065489    0   0   0
S             0.0000152751        3.6387340328      -10.7330757790    0   0   0
S            -1.5755906502        4.5484413613       -1.4877305502    0   0   0
Mo           -1.5753142206        4.5485790055        3.0560233537
Mo           -0.0116596072        3.6247465378        9.1756759735
S            -1.5740105499        4.5493479983        7.6018651009
S             0.0005975416        3.6393625110        4.6238986168
S             0.0000002089        3.6388996024        1.4880837469
S            -1.5831693619        4.5440576322       10.7384531494
Mo           -3.1512226931        7.2774749019       -9.1672481230    0   0   0
Mo           -1.5755910988        6.3678216792       -3.0555115988    0   0   0
S            -3.1512162438        7.2774954350       -4.6232578178    0   0   0
S            -1.5756025210        6.3677884239       -7.6014065489    0   0   0
S            -1.5756020673        6.3677895528      -10.7330757790    0   0   0
S            -3.1512127704        7.2774877076       -1.4877200710    0   0   0
Mo           -3.1509438944        7.2773117360        3.0558898022
Mo           -1.5935595121        6.3646817614        9.1756759875
S            -3.1468628875        7.2758807674        7.5882146844
S            -1.5747604118        6.3679666043        4.6238995349
S            -1.5754597724        6.3676816650        1.4880825927
S            -3.1728472227        7.2819020151       10.7307305983
Mo           -4.7268400355       10.0065304219       -9.1672481230    0   0   0
Mo           -3.1512405618        9.0968403586       -3.0554816746    0   0   0
S            -4.7268341792       10.0065523623       -4.6232463762    0   0   0
S            -3.1512198634        9.0968439439       -7.6014065489    0   0   0
S            -3.1512194097        9.0968450728      -10.7330757790    0   0   0
S            -4.7268370797       10.0065537885       -1.4877176751    0   0   0
Mo           -4.7268106494       10.0065377506        3.0552148596
Mo           -3.1527018399        9.0977542083        9.1562279230
S            -4.7267936360       10.0065624613        7.5870303459
S            -3.1512338225        9.0968762515        4.6229669171
S            -3.1508608573        9.0966614460        1.4879554470
S            -4.7267974863       10.0065603155       10.7246294992
Mo            3.1512517547        1.8193638619       -9.1672481230    0   0   0
Mo            4.7269020221        0.9097289540       -3.0554823951    0   0   0
S             3.1512612351        1.8193882564       -4.6232320683    0   0   0
S             4.7268719268        0.9096773839       -7.6014065489    0   0   0
S             4.7268723805        0.9096785128      -10.7330757790    0   0   0
S             3.1512592485        1.8193890201       -1.4877261251    0   0   0
Mo            3.1513030702        1.8196742344        3.0558906254
Mo            4.7259657318        0.9091618153        9.1531886016
S             3.1505410480        1.8239406769        7.5882131116
S             4.7272532873        0.9098911154        4.6232568497
S             4.7267875976        0.9096228294        1.4880184474
S             3.1583175946        1.7984302153       10.7307315121
[...]
S             7.8781440994        6.3679254769        1.4880197771
S             6.3242106375        7.2819049041       10.7307266426
Mo            4.7268792535       10.0065304219       -9.1672481230    0   0   0
Mo            6.3025111524        9.0968738021       -3.0554915260    0   0   0
S             4.7268840634       10.0065452125       -4.6232380477    0   0   0
S             6.3024994256        9.0968439439       -7.6014065489    0   0   0
S             6.3024998793        9.0968450728      -10.7330757790    0   0   0
S             4.7268847312       10.0065459141       -1.4877283294    0   0   0
Mo            4.7266385776       10.0064062634        3.0558903078
Mo            6.3040692404        9.0977562952        9.1562229786
S             4.7233658298       10.0036411331        7.5882076804
S             6.3025711039        9.0968763515        4.6229685495
S             6.3021987647        9.0966610539        1.4879529659
S             4.7415699381       10.0231276206       10.7307257976
Pt            1.5756719481        6.3678051749       11.9732701897
End final coordinates

     Writing all to output data dir ./outdir/pwscf.save/

     General routines

     Parallel routines

   This run was terminated on:  15: 7:32  17Dec2023

   JOB DONE.
Application 11497471 resources: utime ~6492569s, stime ~83747s, Rss ~3551036, inblocks ~0, outblocks ~57469720