     Program PWSCF v.7.2 starts on 15Dec2023 at 12:21:32

     Waiting for input...
     Reading input from standard input
Warning: card &CELL ignored
Warning: card / ignored

     Current dimensions of program PWSCF are:
     Max number of different atomic species (ntypx) = 10
     Max number of k-points (npk) =  40000
     Max angular momentum in pseudopotentials (lmaxx) =  4
     file Mo.pbe-spn-kjpaw_psl.1.0.0.UPF: wavefunction(s)  4S 4D renormalized
     file S.pbe-n-kjpaw_psl.1.0.0.UPF: wavefunction(s)  3S 3P renormalized
     file Pt.pbe-spfn-kjpaw_psl.1.0.0.UPF: wavefunction(s)  5P 4F renormalized

     R & G space division:  proc/nbgrp/npool/nimage =      36
     Subspace diagonalization in iterative solution of the eigenvalue problem:
     one sub-group per band group will be used

     Using Slab Decomposition

     bravais-lattice index     =            0
     lattice parameter (alat)  =      23.8199  a.u.
     unit-cell volume          =   33861.0370 (a.u.)^3
     number of atoms/cell      =          193
     number of atomic types    =            3
     number of electrons       =      1696.00
     number of Kohn-Sham states=         1018
     kinetic-energy cutoff     =      77.0000  Ry
     charge density cutoff     =     539.0000  Ry
     scf convergence threshold =      1.0E-06
     mixing beta               =       0.2000
     number of iterations used =            8  plain     mixing
     energy convergence thresh.=      1.0E-04
     force convergence thresh. =      1.0E-03
     Exchange-correlation= SLA  PW   PBX  PBC
                           (   1   4   3   4   0   0   0)
     nstep                     =         1000

     Effective Screening Medium Method
     Boundary Conditions: Vacuum-Slab-Vacuum
     total charge in unit cell        =   0.0000
     grid points for fit at edges     =        4

     celldm(1)=  23.819920  celldm(2)=   0.000000  celldm(3)=   0.000000
     celldm(4)=   0.000000  celldm(5)=   0.000000  celldm(6)=   0.000000

     crystal axes: (cart. coord. in units of alat)
               a(1) = (   1.000000   0.000000   0.000000 )
               a(2) = (  -0.499999   0.866026   0.000000 )
               a(3) = (   0.000000   0.000000   2.893000 )

     reciprocal axes: (cart. coord. in units 2 pi/alat)
               b(1) = (  1.000000  0.577349  0.000000 )
               b(2) = (  0.000000  1.154700  0.000000 )
               b(3) = (  0.000000  0.000000  0.345662 )

     PseudoPot. # 1 for Mo read from file:
     ./pseudo/Mo.pbe-spn-kjpaw_psl.1.0.0.UPF
     MD5 check sum: 317bf72632116215fd98f72de1686f13
     Pseudo is Projector augmented-wave + core cor, Zval = 14.0
     Generated using 'atomic' code by A. Dal Corso  v.7.2
     Shape of augmentation charge: PSQ
     Using radial grid of 1229 points,  6 beta functions with:
                l(1) =   0
                l(2) =   0
                l(3) =   1
                l(4) =   1
                l(5) =   2
                l(6) =   2
     Q(r) pseudized with 0 coefficients

     PseudoPot. # 2 for S  read from file:
     ./pseudo/S.pbe-n-kjpaw_psl.1.0.0.UPF
     MD5 check sum: 8b7b5302570d38d5e87fed6a1065abda
     Pseudo is Projector augmented-wave + core cor, Zval =  6.0
     Generated using 'atomic' code by A. Dal Corso  v.7.2
     Shape of augmentation charge: PSQ
     Using radial grid of 1151 points,  6 beta functions with:
                l(1) =   0
                l(2) =   0
                l(3) =   1
                l(4) =   1
                l(5) =   2
                l(6) =   2
     Q(r) pseudized with 0 coefficients

     PseudoPot. # 3 for Pt read from file:
     ./pseudo/Pt.pbe-spfn-kjpaw_psl.1.0.0.UPF
     MD5 check sum: 620096ebf4e6ebacc94de60fd67efcb5
     Pseudo is Projector augmented-wave + core cor, Zval = 32.0
     Generated using 'atomic' code by A. Dal Corso  v.7.2
     Shape of augmentation charge: PSQ
     Using radial grid of 1277 points,  8 beta functions with:
                l(1) =   0
                l(2) =   0
                l(3) =   1
                l(4) =   1
                l(5) =   2
                l(6) =   2
                l(7) =   3
                l(8) =   3
     Q(r) pseudized with 0 coefficients

     atomic species   valence    mass     pseudopotential
        Mo            14.00    95.95000     Mo( 1.00)
        S              6.00    32.06000     S ( 1.00)
        Pt            32.00   195.08400     Pt( 1.00)

     No symmetry found

   Cartesian axes

     site n.     atom                  positions (alat units)
         1           Mo  tau(   1) = (   0.0000010   0.1443372  -0.7272732  )
         2           Mo  tau(   2) = (   0.1249995   0.0721706  -0.2424038  )
         3           S   tau(   3) = (   0.0000015   0.1443386  -0.3667807  )
         4           S   tau(   4) = (   0.1250010   0.0721682  -0.6030489  )
         5           S   tau(   5) = (   0.1250010   0.0721683  -0.8514963  )
         6           S   tau(   6) = (   0.0000015   0.1443389  -0.1180260  )
         7           Mo  tau(   7) = (   0.0000041   0.1443345   0.2424023  )
         8           Mo  tau(   8) = (   0.1250030   0.0721700   0.7272501  )
         9           S   tau(   9) = (   0.0000038   0.1443392   0.6028599  )
        10           S   tau(  10) = (   0.1250037   0.0721683   0.3667755  )
        11           S   tau(  11) = (   0.1250033   0.0721688   0.1180247  )
        12           S   tau(  12) = (   0.0000038   0.1443391   0.8517304  )
        13           Mo  tau(  13) = (  -0.1249989   0.3608437  -0.7272732  )
        14           Mo  tau(  14) = (   0.0000030   0.2886752  -0.2424042  )
        15           S   tau(  15) = (  -0.1249977   0.3608450  -0.3667802  )
        16           S   tau(  16) = (   0.0000012   0.2886747  -0.6030489  )
        17           S   tau(  17) = (   0.0000012   0.2886748  -0.8514963  )
        18           S   tau(  18) = (  -0.1249977   0.3608454  -0.1180274  )
        19           Mo  tau(  19) = (  -0.1249981   0.3608444   0.2424011  )
        20           Mo  tau(  20) = (   0.0000038   0.2886765   0.7272499  )
        21           S   tau(  21) = (  -0.1249961   0.3608457   0.6028596  )
        22           S   tau(  22) = (   0.0000037   0.2886752   0.3667739  )
        23           S   tau(  23) = (   0.0000035   0.2886747   0.1180263  )
        24           S   tau(  24) = (  -0.1249962   0.3608459   0.8517305  )
        25           Mo  tau(  25) = (  -0.2499987   0.5773502  -0.7272732  )
        26           Mo  tau(  26) = (  -0.1249977   0.5051839  -0.2424055  )
        27           S   tau(  27) = (  -0.2499981   0.5773518  -0.3667809  )
        28           S   tau(  28) = (  -0.1249986   0.5051812  -0.6030489  )
        29           S   tau(  29) = (  -0.1249986   0.5051813  -0.8514963  )
        30           S   tau(  30) = (  -0.2499979   0.5773512  -0.1180266  )
        31           Mo  tau(  31) = (  -0.2499983   0.5773503   0.2424020  )
        32           Mo  tau(  32) = (  -0.1249962   0.5051830   0.7272501  )
        33           S   tau(  33) = (  -0.2499958   0.5773522   0.6028593  )
        34           S   tau(  34) = (  -0.1249963   0.5051821   0.3667746  )
        35           S   tau(  35) = (  -0.1249968   0.5051820   0.1180254  )
        36           S   tau(  36) = (  -0.2499959   0.5773522   0.8517307  )
        37           Mo  tau(  37) = (  -0.3749985   0.7938567  -0.7272732  )
        38           Mo  tau(  38) = (  -0.2500001   0.7216874  -0.2424031  )
        39           S   tau(  39) = (  -0.3749980   0.7938584  -0.3667800  )
        40           S   tau(  40) = (  -0.2499984   0.7216877  -0.6030489  )
        41           S   tau(  41) = (  -0.2499984   0.7216878  -0.8514963  )
        42           S   tau(  42) = (  -0.3749982   0.7938585  -0.1180264  )
        43           Mo  tau(  43) = (  -0.3749976   0.7938584   0.2424002  )
        44           Mo  tau(  44) = (  -0.2499965   0.7216896   0.7272502  )
        45           S   tau(  45) = (  -0.3749954   0.7938586   0.6028596  )
        46           S   tau(  46) = (  -0.2499962   0.7216890   0.3667741  )
        47           S   tau(  47) = (  -0.2499961   0.7216884   0.1180258  )
        48           S   tau(  48) = (  -0.3749955   0.7938585   0.8517305  )
        49           Mo  tau(  49) = (   0.2500010   0.1443372  -0.7272732  )
        50           Mo  tau(  50) = (   0.3750034   0.0721723  -0.2424032  )
        51           S   tau(  51) = (   0.2500017   0.1443391  -0.3667788  )
        52           S   tau(  52) = (   0.3750010   0.0721682  -0.6030489  )
        53           S   tau(  53) = (   0.3750010   0.0721683  -0.8514963  )
        54           S   tau(  54) = (   0.2500016   0.1443391  -0.1180271  )
        55           Mo  tau(  55) = (   0.2500037   0.1443371   0.2424008  )
        56           Mo  tau(  56) = (   0.3750049   0.0721708   0.7272499  )
        57           S   tau(  57) = (   0.2500041   0.1443391   0.6028593  )
        58           S   tau(  58) = (   0.3750026   0.0721682   0.3667763  )
        59           S   tau(  59) = (   0.3750033   0.0721687   0.1180242  )
        60           S   tau(  60) = (   0.2500040   0.1443392   0.8517310  )
[...]
       179           S   tau( 179) = (   0.6250040   0.5051821   0.1180241  )
       180           S   tau( 180) = (   0.5000045   0.5773523   0.8517308  )
       181           Mo  tau( 181) = (   0.3750016   0.7938567  -0.7272732  )
       182           Mo  tau( 182) = (   0.5000025   0.7216901  -0.2424039  )
       183           S   tau( 183) = (   0.3750019   0.7938578  -0.3667793  )
       184           S   tau( 184) = (   0.5000016   0.7216877  -0.6030489  )
       185           S   tau( 185) = (   0.5000016   0.7216878  -0.8514963  )
       186           S   tau( 186) = (   0.3750020   0.7938579  -0.1180272  )
       187           Mo  tau( 187) = (   0.3750057   0.7938586   0.2424015  )
       188           Mo  tau( 188) = (   0.5000052   0.7216902   0.7272503  )
       189           S   tau( 189) = (   0.3750045   0.7938588   0.6028592  )
       190           S   tau( 190) = (   0.5000042   0.7216887   0.3667757  )
       191           S   tau( 191) = (   0.5000039   0.7216887   0.1180242  )
       192           S   tau( 192) = (   0.3750047   0.7938587   0.8517308  )
       193           Pt  tau( 193) = (   0.1250302   0.3608104   1.0341962  )

     DFT-D3 Dispersion Correction (3-body terms):
       Reference C6 values for interpolation:

         atom   Coordination number   C6
         S          0.000           268.01
         S          0.995           261.99
         S          1.990           251.62
         Mo         0.000          1691.79
         Mo         1.942          1004.01
         Mo        11.056           674.22
         Pt         0.000           782.29
         Pt         1.919           692.72
         Pt         6.667           673.75

       Values used:

         atom   Coordination number  R0_AB[au]  C6      C8
         Mo        10.208            3.547    674.22  77634.20
         Mo        10.221            3.547    674.22  77634.20
         S          3.858            3.128    251.62  12327.25
[...]
     atom   15 type  2   force =     0.00000000    0.00000000    0.00000000
     atom   16 type  2   force =     0.00000000    0.00000000    0.00000000
     atom   17 type  2   force =     0.00000000    0.00000000    0.00000000
     atom   18 type  2   force =     0.00000000    0.00000000    0.00000000
     atom   19 type  1   force =    -0.00000207   -0.00000247   -0.00001770
     atom   20 type  1   force =     0.00003128    0.00001805    0.00011513
     atom   21 type  2   force =    -0.00000330   -0.00000220    0.00002886
     atom   22 type  2   force =     0.00000201    0.00000116   -0.00000380
     atom   23 type  2   force =    -0.00000242   -0.00000137   -0.00000548
     atom   24 type  2   force =    -0.00000231    0.00000475    0.00003631
     atom   25 type  1   force =     0.00000000    0.00000000    0.00000000
     atom   26 type  1   force =     0.00000000    0.00000000    0.00000000
     atom   27 type  2   force =     0.00000000    0.00000000    0.00000000
     atom   28 type  2   force =     0.00000000    0.00000000    0.00000000
     atom   29 type  2   force =     0.00000000    0.00000000    0.00000000
     atom   30 type  2   force =     0.00000000    0.00000000    0.00000000
     atom   31 type  1   force =    -0.00000333    0.00000237   -0.00001485
     atom   32 type  1   force =    -0.00000714    0.00000408    0.00016336
     atom   33 type  2   force =    -0.00000200    0.00000152    0.00003527
     atom   34 type  2   force =     0.00000163   -0.00000080   -0.00000502
     atom   35 type  2   force =    -0.00000092    0.00000062   -0.00000654
     atom   36 type  2   force =     0.00000425   -0.00000281    0.00003591
     atom   37 type  1   force =     0.00000000    0.00000000    0.00000000
     atom   38 type  1   force =     0.00000000    0.00000000    0.00000000
     atom   39 type  2   force =     0.00000000    0.00000000    0.00000000
     atom   40 type  2   force =     0.00000000    0.00000000    0.00000000
     atom   41 type  2   force =     0.00000000    0.00000000    0.00000000
     atom   42 type  2   force =     0.00000000    0.00000000    0.00000000
     atom   43 type  1   force =    -0.00000031   -0.00000421   -0.00001486
     atom   44 type  1   force =     0.00000885    0.00000507    0.00013332
     atom   45 type  2   force =     0.00000009   -0.00000298    0.00003547
     atom   46 type  2   force =    -0.00000146   -0.00000098   -0.00001060
     atom   47 type  2   force =    -0.00000008   -0.00000017   -0.00000619
     atom   48 type  2   force =    -0.00000050    0.00000518    0.00003622
     atom   49 type  1   force =     0.00000000    0.00000000    0.00000000
     atom   50 type  1   force =     0.00000000    0.00000000    0.00000000
     atom   51 type  2   force =     0.00000000    0.00000000    0.00000000
     atom   52 type  2   force =     0.00000000    0.00000000    0.00000000
     atom   53 type  2   force =     0.00000000    0.00000000    0.00000000
     atom   54 type  2   force =     0.00000000    0.00000000    0.00000000
     atom   55 type  1   force =     0.00000264   -0.00000132   -0.00001804
     atom   56 type  1   force =     0.00001099   -0.00001770    0.00013205
     atom   57 type  2   force =     0.00000362   -0.00000185    0.00002865
     atom   58 type  2   force =    -0.00000147    0.00000085   -0.00000820
     atom   59 type  2   force =     0.00000035   -0.00000037   -0.00000653
     atom   60 type  2   force =    -0.00000347   -0.00000458    0.00003692
[...]
     atom  179 type  2   force =     0.00000035    0.00000034   -0.00000629
     atom  180 type  2   force =    -0.00000444   -0.00000229    0.00003614
     atom  181 type  1   force =     0.00000000    0.00000000    0.00000000
     atom  182 type  1   force =     0.00000000    0.00000000    0.00000000
     atom  183 type  2   force =     0.00000000    0.00000000    0.00000000
     atom  184 type  2   force =     0.00000000    0.00000000    0.00000000
     atom  185 type  2   force =     0.00000000    0.00000000    0.00000000
     atom  186 type  2   force =     0.00000000    0.00000000    0.00000000
     atom  187 type  1   force =    -0.00000185    0.00000100   -0.00001434
     atom  188 type  1   force =    -0.00001018    0.00000521    0.00013488
     atom  189 type  2   force =    -0.00000663    0.00000375    0.00004149
     atom  190 type  2   force =     0.00000125   -0.00000076   -0.00001042
     atom  191 type  2   force =     0.00000009    0.00000024   -0.00000621
     atom  192 type  2   force =     0.00000169   -0.00000103    0.00003139
     atom  193 type  3   force =    -0.00000037    0.00000063   -0.00065822

     DFT-D3 dispersion contribution to forces:
     atom    1 type  1   force =     0.00000002    0.00000004    0.00255969
     atom    2 type  1   force =    -0.00000000    0.00000009    0.00001473
     atom    3 type  2   force =     0.00000004    0.00000002   -0.00003308
     atom    4 type  2   force =    -0.00000001    0.00000002    0.00017154
     atom    5 type  2   force =    -0.00000000    0.00000003    0.00441485
     atom    6 type  2   force =     0.00000011    0.00000005    0.00009733
     atom    7 type  1   force =    -0.00000207   -0.00000300   -0.00002110
     atom    8 type  1   force =     0.00000002    0.00031133   -0.00220576
     atom    9 type  2   force =     0.00002159    0.00004837   -0.00007436
     atom   10 type  2   force =     0.00000000   -0.00000799    0.00002730
     atom   11 type  2   force =    -0.00000001   -0.00000004   -0.00009766
     atom   12 type  2   force =     0.00024007    0.00038824   -0.00411759
     atom   13 type  1   force =     0.00000005    0.00000000    0.00255969
     atom   14 type  1   force =     0.00000006    0.00000003    0.00001478
     atom   15 type  2   force =     0.00000005    0.00000003   -0.00003309
     atom   16 type  2   force =     0.00000000    0.00000000    0.00017156
     atom   17 type  2   force =     0.00000001    0.00000001    0.00441469
     atom   18 type  2   force =     0.00000013    0.00000006    0.00009733
     atom   19 type  1   force =    -0.00000362   -0.00000030   -0.00002109
     atom   20 type  1   force =     0.00015900    0.00009175   -0.00211437
     atom   21 type  2   force =     0.00005267   -0.00000551   -0.00007439
     atom   22 type  2   force =    -0.00000679   -0.00000393    0.00003106
     atom   23 type  2   force =     0.00000031    0.00000017   -0.00009830
     atom   24 type  2   force =     0.00045637    0.00001370   -0.00411757
     atom   25 type  1   force =     0.00000002   -0.00000002    0.00255964
     atom   26 type  1   force =     0.00000012   -0.00000001    0.00001470
     atom   27 type  2   force =     0.00000004   -0.00000001   -0.00003305
     atom   28 type  2   force =     0.00000002   -0.00000001    0.00017154
     atom   29 type  2   force =     0.00000003   -0.00000001    0.00441485
     atom   30 type  2   force =     0.00000007   -0.00000001    0.00009731
     atom   31 type  1   force =     0.00000229   -0.00000133   -0.00001719
     atom   32 type  1   force =     0.00026957   -0.00015565   -0.00220588
     atom   33 type  2   force =    -0.00001697    0.00000979   -0.00016359
     atom   34 type  2   force =    -0.00000693    0.00000400    0.00002730
     atom   35 type  2   force =    -0.00000003    0.00000002   -0.00009765
     atom   36 type  2   force =     0.00012270   -0.00007085   -0.00436451
     atom   37 type  1   force =    -0.00000000    0.00000002    0.00255964
     atom   38 type  1   force =    -0.00000001    0.00000000    0.00001465
     atom   39 type  2   force =     0.00000001    0.00000003   -0.00003305
     atom   40 type  2   force =     0.00000000   -0.00000000    0.00017152
     atom   41 type  2   force =     0.00000004    0.00000002    0.00441497
     atom   42 type  2   force =     0.00000001    0.00000007    0.00009731
     atom   43 type  1   force =    -0.00000001    0.00000265   -0.00001719
     atom   44 type  1   force =     0.00000630    0.00000367   -0.00251349
     atom   45 type  2   force =     0.00000000   -0.00001957   -0.00016359
     atom   46 type  2   force =     0.00000302    0.00000175    0.00003677
     atom   47 type  2   force =     0.00000007    0.00000005   -0.00009744
     atom   48 type  2   force =     0.00000001    0.00014178   -0.00436447
     atom   49 type  1   force =    -0.00000002    0.00000004    0.00255968
     atom   50 type  1   force =    -0.00000008    0.00000005    0.00001463
     atom   51 type  2   force =    -0.00000004    0.00000000   -0.00003308
     atom   52 type  2   force =     0.00000001    0.00000001    0.00017152
     atom   53 type  2   force =    -0.00000001    0.00000002    0.00441490
     atom   54 type  2   force =    -0.00000010    0.00000005    0.00009733
     atom   55 type  1   force =     0.00000208   -0.00000298   -0.00002110
     atom   56 type  1   force =    -0.00010235    0.00011160   -0.00240593
     atom   57 type  2   force =    -0.00002158    0.00004840   -0.00007434
     atom   58 type  2   force =     0.00000120   -0.00000249    0.00003197
     atom   59 type  2   force =    -0.00000054    0.00000006   -0.00009710
     atom   60 type  2   force =    -0.00023998    0.00038819   -0.00411760
[...]
     atom  179 type  2   force =    -0.00000001   -0.00000009   -0.00009744
     atom  180 type  2   force =    -0.00012275   -0.00007088   -0.00436448
     atom  181 type  1   force =    -0.00000001    0.00000000    0.00255965
     atom  182 type  1   force =    -0.00000005   -0.00000002    0.00001464
     atom  183 type  2   force =    -0.00000003   -0.00000003   -0.00003306
     atom  184 type  2   force =    -0.00000001    0.00000000    0.00017154
     atom  185 type  2   force =    -0.00000004    0.00000002    0.00441497
     atom  186 type  2   force =    -0.00000001   -0.00000004    0.00009725
     atom  187 type  1   force =    -0.00000114    0.00000066   -0.00001534
     atom  188 type  1   force =    -0.00000632    0.00000366   -0.00251349
     atom  189 type  2   force =    -0.00000257    0.00000148   -0.00016612
     atom  190 type  2   force =    -0.00000302    0.00000175    0.00003676
     atom  191 type  2   force =    -0.00000009    0.00000005   -0.00009746
     atom  192 type  2   force =    -0.00000363    0.00000211   -0.00439032
     atom  193 type  3   force =    -0.00000017    0.00000020   -0.00668211

     Total force =     0.004875     Total SCF correction =     0.000880
     SCF correction compared to forces is large: reduce conv_thr to get better values
     Energy error            =      3.9E-05 Ry
     Gradient error          =      9.0E-04 Ry/Bohr

     bfgs converged in  13 scf cycles and  12 bfgs steps
     (criteria: energy <  1.0E-04 Ry, force <  1.0E-03 Ry/Bohr)

     End of BFGS Geometry Optimization

     Final energy             =  -33468.3006439108 Ry

     File ./outdir/pwscf.bfgs deleted, as requested
Begin final coordinates

ATOMIC_POSITIONS (angstrom)
Mo            0.0000119917        1.8193638619       -9.1672481230    0   0   0
Mo            1.5756136568        0.9097075315       -3.0554901653    0   0   0
S             0.0000188998        1.8193822938       -4.6232556019    0   0   0
S             1.5756321638        0.9096773839       -7.6014065489    0   0   0
S             1.5756326175        0.9096785128      -10.7330757790    0   0   0
S             0.0000189190        1.8193860094       -1.4877129945    0   0   0
Mo            0.0000677360        1.8194933162        3.0559182818
Mo            1.5756693840        0.9118451802        9.1794022965
S             0.0001384169        1.8087458401        7.6011899803
S             1.5756579035        0.9097391015        4.6233476826
S             1.5756585644        0.9098162105        1.4880757283
S            -0.0056419407        1.8189461009       10.7474517679
Mo           -1.5756053507        4.5484193819       -9.1672481230    0   0   0
Mo            0.0000378379        3.6387394919       -3.0554952701    0   0   0
S            -1.5755913433        4.5484363582       -4.6232494962    0   0   0
S             0.0000148214        3.6387329039       -7.6014065489    0   0   0
S             0.0000152751        3.6387340328      -10.7330757790    0   0   0
S            -1.5755906502        4.5484413613       -1.4877305502    0   0   0
Mo           -1.5754565037        4.5483899934        3.0559154195
Mo           -0.0199681842        3.6271947436        9.1691807648
S            -1.5847372460        4.5538447007        7.6011953659
S             0.0004618547        3.6389858594        4.6239062182
S            -0.0000609954        3.6386817210        1.4879132618
S            -1.5787944110        4.5437293703       10.7474556701
Mo           -3.1512226931        7.2774749019       -9.1672481230    0   0   0
Mo           -1.5755910988        6.3678216792       -3.0555115988    0   0   0
S            -3.1512162438        7.2774954350       -4.6232578178    0   0   0
S            -1.5756025210        6.3677884239       -7.6014065489    0   0   0
S            -1.5756020673        6.3677895528      -10.7330757790    0   0   0
S            -3.1512127704        7.2774877076       -1.4877200710    0   0   0
Mo           -3.1511700666        7.2774700506        3.0557196309
Mo           -1.5737094279        6.3667399827        9.1794132846
S            -3.1479392232        7.2756244563        7.6067021536
S            -1.5755291769        6.3677695561        4.6233479933
S            -1.5754644839        6.3677300971        1.4880672658
S            -3.1532508682        7.2786913944       10.7424433414
Mo           -4.7268400355       10.0065304219       -9.1672481230    0   0   0
Mo           -3.1512405618        9.0968403586       -3.0554816746    0   0   0
S            -4.7268341792       10.0065523623       -4.6232463762    0   0   0
S            -3.1512198634        9.0968439439       -7.6014065489    0   0   0
S            -3.1512194097        9.0968450728      -10.7330757790    0   0   0
S            -4.7268370797       10.0065537885       -1.4877176751    0   0   0
Mo           -4.7268094616       10.0065630253        3.0557244773
Mo           -3.1508775395        9.0970426790        9.1715564063
S            -4.7268029643       10.0102959709        7.6066992183
S            -3.1513103241        9.0967804344        4.6236289892
S            -3.1511613733        9.0968687448        1.4879956522
S            -4.7268011987       10.0041732118       10.7424398030
Mo            3.1512517547        1.8193638619       -9.1672481230    0   0   0
Mo            4.7269020221        0.9097289540       -3.0554823951    0   0   0
S             3.1512612351        1.8193882564       -4.6232320683    0   0   0
S             4.7268719268        0.9096773839       -7.6014065489    0   0   0
S             4.7268723805        0.9096785128      -10.7330757790    0   0   0
S             3.1512592485        1.8193890201       -1.4877261251    0   0   0
Mo            3.1512520242        1.8194932978        3.0559188062
Mo            4.7248163629        0.9065477821        9.1716992519
S             3.1511982695        1.8087340443        7.6011779021
S             4.7269064509        0.9097167638        4.6236015598
S             4.7268459504        0.9097302102        1.4881425190
S             3.1569845601        1.8189535447       10.7474413307
[...]
S             7.8781437518        6.3677600065        1.4879889786
S             6.3045981794        7.2786893751       10.7424398788
Mo            4.7268792535       10.0065304219       -9.1672481230    0   0   0
Mo            6.3025111524        9.0968738021       -3.0554915260    0   0   0
S             4.7268840634       10.0065452125       -4.6232380477    0   0   0
S             6.3024994256        9.0968439439       -7.6014065489    0   0   0
S             6.3024998793        9.0968450728      -10.7330757790    0   0   0
S             4.7268847312       10.0065459141       -1.4877283294    0   0   0
Mo            4.7269573593       10.0065070147        3.0558653227
Mo            6.3022316604        9.0970446992        9.1715564286
S             4.7280651119       10.0058866341        7.6023721395
S             6.3026470610        9.0967806153        4.6236338528
S             6.3024977679        9.0968692473        1.4879913397
S             4.7286716928       10.0055433034       10.7416547559
Pt            1.5759012768        4.5481790369       12.7769309559
End final coordinates

     Writing all to output data dir ./outdir/pwscf.save/

     General routines

     Parallel routines

   This run was terminated on:  21:24: 5  16Dec2023

   JOB DONE.
Application 11497449 resources: utime ~4226182s, stime ~55794s, Rss ~3550788, inblocks ~0, outblocks ~54981216