     Program PWSCF v.7.2 starts on 18Jul2023 at 15:40:57

     Waiting for input...
     Reading input from standard input

     Current dimensions of program PWSCF are:
     Max number of different atomic species (ntypx) = 10
     Max number of k-points (npk) =  40000
     Max angular momentum in pseudopotentials (lmaxx) =  4
     file Mo.pbe-spn-kjpaw_psl.1.0.0.UPF: wavefunction(s)  4S 4D renormalized
     file S.pbe-n-kjpaw_psl.1.0.0.UPF: wavefunction(s)  3S 3P renormalized
     Found identity + ( -0.3333  0.3333  0.3333) symmetry
     This is a supercell, fractional translations are disabled

     R & G space division:  proc/nbgrp/npool/nimage =      48
     Subspace diagonalization in iterative solution of the eigenvalue problem:
     a serial algorithm will be used

     Using Slab Decomposition

     bravais-lattice index     =            0
     lattice parameter (alat)  =       6.0175  a.u.
     unit-cell volume          =    1152.3731 (a.u.)^3
     number of atoms/cell      =            9
     number of atomic types    =            2
     number of electrons       =        78.00
     number of Kohn-Sham states=           47
     kinetic-energy cutoff     =      77.0000  Ry
     charge density cutoff     =     539.0000  Ry
     scf convergence threshold =      1.0E-06
     mixing beta               =       0.2000
     number of iterations used =            8  plain     mixing
     energy convergence thresh.=      1.0E-04
     force convergence thresh. =      1.0E-03
     press convergence thresh. =      5.0E-01
     Exchange-correlation= SLA  PW   PBX  PBC
                           (   1   4   3   4   0   0   0)
     nstep                     =         1000

     celldm(1)=   6.017462  celldm(2)=   0.000000  celldm(3)=   0.000000
     celldm(4)=   0.000000  celldm(5)=   0.000000  celldm(6)=   0.000000

     crystal axes: (cart. coord. in units of alat)
               a(1) = (   1.000000   0.000000   0.000000 )
               a(2) = (  -0.500000   0.866025   0.000000 )
               a(3) = (   0.000000   0.000000   6.106922 )

     reciprocal axes: (cart. coord. in units 2 pi/alat)
               b(1) = (  1.000000  0.577350  0.000000 )
               b(2) = (  0.000000  1.154701  0.000000 )
               b(3) = (  0.000000  0.000000  0.163749 )

     PseudoPot. # 1 for Mo read from file:
     ./pseudo/Mo.pbe-spn-kjpaw_psl.1.0.0.UPF
     MD5 check sum: 317bf72632116215fd98f72de1686f13
     Pseudo is Projector augmented-wave + core cor, Zval = 14.0
     Generated using 'atomic' code by A. Dal Corso  v.7.2
     Shape of augmentation charge: PSQ
     Using radial grid of 1229 points,  6 beta functions with:
                l(1) =   0
                l(2) =   0
                l(3) =   1
                l(4) =   1
                l(5) =   2
                l(6) =   2
     Q(r) pseudized with 0 coefficients

     PseudoPot. # 2 for S  read from file:
     ./pseudo/S.pbe-n-kjpaw_psl.1.0.0.UPF
     MD5 check sum: 8b7b5302570d38d5e87fed6a1065abda
     Pseudo is Projector augmented-wave + core cor, Zval =  6.0
     Generated using 'atomic' code by A. Dal Corso  v.7.2
     Shape of augmentation charge: PSQ
     Using radial grid of 1151 points,  6 beta functions with:
                l(1) =   0
                l(2) =   0
                l(3) =   1
                l(4) =   1
                l(5) =   2
                l(6) =   2
     Q(r) pseudized with 0 coefficients

     atomic species   valence    mass     pseudopotential
        Mo            14.00    95.95000     Mo( 1.00)
        S              6.00    32.06000     S ( 1.00)

     No symmetry found

   Cartesian axes

     site n.     atom                  positions (alat units)
         1           Mo  tau(   1) = (   0.0000000   0.0000000   6.1055482  )
         2           Mo  tau(   2) = (   0.5000000   0.2886751   2.0342669  )
         3           Mo  tau(   3) = (   0.0000000   0.5773503   4.0699075  )
         4           S   tau(   4) = (   0.0000000   0.0000000   1.5468573  )
         5           S   tau(   5) = (   0.5000000   0.2886751   3.5824980  )
         6           S   tau(   6) = (   0.0000000   0.5773503   5.6181387  )
         7           S   tau(   7) = (   0.0000000   0.0000000   2.5217326  )
         8           S   tau(   8) = (   0.5000000   0.2886751   4.5573733  )
         9           S   tau(   9) = (   0.0000000   0.5773503   0.4860920  )

     DFT-D3 Dispersion Correction (3-body terms):
       Reference C6 values for interpolation:

         atom   Coordination number   C6
         S          0.000           268.01
         S          0.995           261.99
         S          1.990           251.62
         Mo         0.000          1691.79
         Mo         1.942          1004.01
         Mo        11.056           674.22

       Values used:

         atom   Coordination number  R0_AB[au]  C6      C8
         Mo         9.961            3.547    674.22  77634.20
         Mo         9.961            3.547    674.22  77634.20
         Mo         9.961            3.547    674.22  77634.20
         S          3.726            3.128    251.62  12327.25
         S          3.726            3.128    251.62  12327.25
         S          3.726            3.128    251.62  12327.25
         S          3.726            3.128    251.62  12327.25
         S          3.726            3.128    251.62  12327.25
         S          3.726            3.128    251.62  12327.25

         Molecular C6 ( Ry / a.u.^6 ) =     29912.92

     number of k points=    36  Gaussian smearing, width (Ry)=  0.0100
                       cart. coord. in units 2pi/alat
        k(    1) = (   0.0000000   0.0000000   0.0000000), wk =   0.0312500
        k(    2) = (   0.0000000   0.0000000   0.0409372), wk =   0.0625000
        k(    3) = (   0.0000000   0.0000000  -0.0818743), wk =   0.0312500
        k(    4) = (   0.0000000   0.2886751   0.0000000), wk =   0.0625000
        k(    5) = (   0.0000000   0.2886751   0.0409372), wk =   0.0625000
        k(    6) = (   0.0000000   0.2886751  -0.0818743), wk =   0.0625000
        k(    7) = (   0.0000000   0.2886751  -0.0409372), wk =   0.0625000
        k(    8) = (   0.0000000  -0.5773503   0.0000000), wk =   0.0312500
        k(    9) = (   0.0000000  -0.5773503   0.0409372), wk =   0.0625000
        k(   10) = (   0.0000000  -0.5773503  -0.0818743), wk =   0.0312500
        k(   11) = (   0.2500000   0.1443376   0.0000000), wk =   0.0625000
        k(   12) = (   0.2500000   0.1443376   0.0409372), wk =   0.0625000
        k(   13) = (   0.2500000   0.1443376  -0.0818743), wk =   0.0625000
        k(   14) = (   0.2500000   0.1443376  -0.0409372), wk =   0.0625000
        k(   15) = (   0.2500000   0.4330127   0.0000000), wk =   0.0625000
        k(   16) = (   0.2500000   0.4330127   0.0409372), wk =   0.0625000
        k(   17) = (   0.2500000   0.4330127  -0.0818743), wk =   0.0625000
        k(   18) = (   0.2500000   0.4330127  -0.0409372), wk =   0.0625000
        k(   19) = (   0.2500000  -0.4330127   0.0000000), wk =   0.0625000
        k(   20) = (   0.2500000  -0.4330127   0.0409372), wk =   0.0625000
        k(   21) = (   0.2500000  -0.4330127  -0.0818743), wk =   0.0625000
        k(   22) = (   0.2500000  -0.4330127  -0.0409372), wk =   0.0625000
        k(   23) = (   0.2500000  -0.1443376   0.0000000), wk =   0.0625000
        k(   24) = (   0.2500000  -0.1443376   0.0409372), wk =   0.0625000
        k(   25) = (   0.2500000  -0.1443376  -0.0818743), wk =   0.0625000
        k(   26) = (   0.2500000  -0.1443376  -0.0409372), wk =   0.0625000
        k(   27) = (  -0.5000000  -0.2886751   0.0000000), wk =   0.0312500
        k(   28) = (  -0.5000000  -0.2886751   0.0409372), wk =   0.0625000
        k(   29) = (  -0.5000000  -0.2886751  -0.0818743), wk =   0.0312500
        k(   30) = (  -0.5000000   0.0000000   0.0000000), wk =   0.0625000
        k(   31) = (  -0.5000000   0.0000000   0.0409372), wk =   0.0625000
        k(   32) = (  -0.5000000   0.0000000  -0.0818743), wk =   0.0625000
        k(   33) = (  -0.5000000   0.0000000  -0.0409372), wk =   0.0625000
        k(   34) = (  -0.5000000  -0.8660254   0.0000000), wk =   0.0312500
        k(   35) = (  -0.5000000  -0.8660254   0.0409372), wk =   0.0625000
        k(   36) = (  -0.5000000  -0.8660254  -0.0818743), wk =   0.0312500

     Initial potential from superposition of free atoms

     starting charge      77.9972, renormalised to      78.0000
     Starting wfcs are   54 randomized atomic wfcs
     Checking if some PAW data can be deallocated...

     Self-consistent Calculation

     iteration #  1     ecut=    77.00 Ry     beta= 0.20
     Davidson diagonalization with overlap
     ethr =  1.00E-02,  avg # of iterations =  2.5

     Threshold (ethr) on eigenvalues was too large:
     Diagonalizing with lowered threshold

     Davidson diagonalization with overlap
     ethr =  2.92E-04,  avg # of iterations =  3.5

     total energy              =   -1490.35952471 Ry
     estimated scf accuracy    <       0.31257941 Ry

[...]

     iteration #  5     ecut=    77.00 Ry     beta= 0.20
     Davidson diagonalization with overlap
     c_bands:  1 eigenvalues not converged
     ethr =  8.66E-06,  avg # of iterations =  7.0

[...]

     End of self-consistent calculation

          k = 0.0000 0.0000 0.0000 ( 13273 PWs)   bands (ev):

   -51.5183 -51.5178 -51.5178 -25.6525 -25.6520 -25.6520 -25.4580 -25.4580
   -25.4575 -25.4575 -25.4575 -25.4575  -4.8347  -4.7405  -4.7401  -3.4861
    -3.4857  -3.3203   3.3925   3.8444   3.8448   6.6866   6.6866   6.6870
     6.6870   6.6920   6.6920   7.2057   7.2060   7.8036   7.8036   7.8136
     7.8136   7.8139   7.8139   8.4902   9.0237   9.7942   9.7946  12.0949
    12.0949  12.1284  12.1284  12.1287  12.1287  12.3720  12.3724

[...]

          k =-0.5000-0.2887 0.0000 ( 13106 PWs)   bands (ev):

[...]

     the Fermi energy is    10.5981 ev

!    total energy              =   -1490.34699746 Ry
     total all-electron energy =    -29085.337631 Ry
     estimated scf accuracy    <       0.00000086 Ry
     smearing contrib. (-TS)   =      -0.00000000 Ry
     internal energy E=F+TS    =   -1490.34699746 Ry

     The total energy is F=E-TS. E is the sum of the following terms:
     one-electron contribution =    -298.82487153 Ry
     hartree contribution      =     186.47430084 Ry
     xc contribution           =     -89.14557056 Ry
     ewald contribution        =    -329.69999174 Ry
     DFT-D3 Dispersion         =      -0.24690878 Ry
     one-center paw contrib.   =    -958.90395568 Ry

     convergence has been achieved in  12 iterations

     Forces acting on atoms (cartesian axes, Ry/au):

     atom    1 type  1   force =    -0.00000055   -0.00000022   -0.00000011
     atom    2 type  1   force =     0.00000008   -0.00000052   -0.00023877
     atom    3 type  1   force =    -0.00000004   -0.00000103   -0.00020971
     atom    4 type  2   force =    -0.00000052    0.00000022   -0.00531589
     atom    5 type  2   force =    -0.00000028    0.00000070   -0.00530922
     atom    6 type  2   force =     0.00000032   -0.00000026   -0.00527965
[...]
End final coordinates

     Writing config-only to output data dir ./outdir/pwscf.save/

     Final scf calculation at the relaxed structure.
     The G-vectors are recalculated for the final unit cell
     Results may differ from those at the preceding step.

     Using Slab Decomposition

     bravais-lattice index     =            0
     lattice parameter (alat)  =       6.0175  a.u.
     unit-cell volume          =    1061.3770 (a.u.)^3
     number of atoms/cell      =            9
     number of atomic types    =            2
     number of electrons       =        78.00
     number of Kohn-Sham states=           47
     kinetic-energy cutoff     =      77.0000  Ry
     charge density cutoff     =     539.0000  Ry
     scf convergence threshold =      1.0E-08
     mixing beta               =       0.2000
     number of iterations used =            8  plain     mixing
     press convergence thresh. =      5.0E-01
     Exchange-correlation= SLA  PW   PBX  PBC
                           (   1   4   3   4   0   0   0)

     celldm(1)=   6.017462  celldm(2)=   0.000000  celldm(3)=   0.000000
     celldm(4)=   0.000000  celldm(5)=   0.000000  celldm(6)=   0.000000

     crystal axes: (cart. coord. in units of alat)
               a(1) = (   0.990430  -0.000001  -0.000001 )
               a(2) = (  -0.495216   0.857739   0.000000 )
               a(3) = (  -0.000004  -0.000001   5.733911 )

     reciprocal axes: (cart. coord. in units 2 pi/alat)
               b(1) = (  1.009663  0.582929  0.000001 )
               b(2) = (  0.000001  1.165857  0.000000 )
               b(3) = (  0.000000  0.000000  0.174401 )

     PseudoPot. # 1 for Mo read from file:
     ./pseudo/Mo.pbe-spn-kjpaw_psl.1.0.0.UPF
     MD5 check sum: 317bf72632116215fd98f72de1686f13
     Pseudo is Projector augmented-wave + core cor, Zval = 14.0
     Generated using 'atomic' code by A. Dal Corso  v.7.2
     Shape of augmentation charge: PSQ
     Using radial grid of 1229 points,  6 beta functions with:
                l(1) =   0
                l(2) =   0
                l(3) =   1
                l(4) =   1
                l(5) =   2
                l(6) =   2
     Q(r) pseudized with 0 coefficients

     PseudoPot. # 2 for S  read from file:
     ./pseudo/S.pbe-n-kjpaw_psl.1.0.0.UPF
     MD5 check sum: 8b7b5302570d38d5e87fed6a1065abda
     Pseudo is Projector augmented-wave + core cor, Zval =  6.0
     Generated using 'atomic' code by A. Dal Corso  v.7.2
     Shape of augmentation charge: PSQ
     Using radial grid of 1151 points,  6 beta functions with:
                l(1) =   0
                l(2) =   0
                l(3) =   1
                l(4) =   1
                l(5) =   2
                l(6) =   2
     Q(r) pseudized with 0 coefficients

     atomic species   valence    mass     pseudopotential
        Mo            14.00    95.95000     Mo( 1.00)
        S              6.00    32.06000     S ( 1.00)

     No symmetry found

   Cartesian axes

     site n.     atom                  positions (alat units)
         1           Mo  tau(   1) = (  -0.0000035  -0.0000049   5.7325649  )
         2           Mo  tau(   2) = (   0.4952166   0.2859148   1.9097963  )
         3           Mo  tau(   3) = (  -0.0000054   0.5718258   3.8211363  )
         4           S   tau(   4) = (   0.0000011   0.0000023   1.4188273  )
         5           S   tau(   5) = (   0.4952094   0.2859122   3.3301634  )
         6           S   tau(   6) = (  -0.0000044   0.5718206   5.2415946  )
         7           S   tau(   7) = (   0.0000019   0.0000022   2.4012725  )
         8           S   tau(   8) = (   0.4952098   0.2859129   4.3126154  )
         9           S   tau(   9) = (  -0.0000002   0.5718217   0.4901314  )

     DFT-D3 Dispersion Correction (3-body terms):
       Reference C6 values for interpolation:

         atom   Coordination number   C6
         S          0.000           268.01
         S          0.995           261.99
         S          1.990           251.62
         Mo         0.000          1691.79
         Mo         1.942          1004.01
         Mo        11.056           674.22

       Values used:

         atom   Coordination number  R0_AB[au]  C6      C8
         Mo        10.204            3.547    674.22  77634.20
         Mo        10.204            3.547    674.22  77634.20
         Mo        10.204            3.547    674.22  77634.20
         S          3.862            3.128    251.62  12327.25
         S          3.862            3.128    251.62  12327.25
         S          3.862            3.128    251.62  12327.25
         S          3.861            3.128    251.62  12327.25
         S          3.861            3.128    251.62  12327.25
         S          3.861            3.128    251.62  12327.25

         Molecular C6 ( Ry / a.u.^6 ) =     29912.92

     number of k points=    36  Gaussian smearing, width (Ry)=  0.0100
                       cart. coord. in units 2pi/alat
        k(    1) = (   0.0000000   0.0000000   0.0000000), wk =   0.0312500
        k(    2) = (   0.0000000   0.0000000   0.0436003), wk =   0.0625000
        k(    3) = (  -0.0000001  -0.0000000  -0.0872005), wk =   0.0312500
        k(    4) = (   0.0000002   0.2914642   0.0000001), wk =   0.0625000
        k(    5) = (   0.0000002   0.2914642   0.0436003), wk =   0.0625000
        k(    6) = (   0.0000001   0.2914642  -0.0872005), wk =   0.0625000
        k(    7) = (   0.0000001   0.2914642  -0.0436002), wk =   0.0625000
        k(    8) = (  -0.0000004  -0.5829284  -0.0000001), wk =   0.0312500
        k(    9) = (  -0.0000003  -0.5829284   0.0436001), wk =   0.0625000
        k(   10) = (  -0.0000004  -0.5829284  -0.0872006), wk =   0.0312500
        k(   11) = (   0.2524157   0.1457323   0.0000002), wk =   0.0625000
        k(   12) = (   0.2524157   0.1457323   0.0436005), wk =   0.0625000
        k(   13) = (   0.2524156   0.1457322  -0.0872003), wk =   0.0625000
        k(   14) = (   0.2524156   0.1457322  -0.0436001), wk =   0.0625000
        k(   15) = (   0.2524158   0.4371965   0.0000003), wk =   0.0625000
        k(   16) = (   0.2524159   0.4371965   0.0436005), wk =   0.0625000
        k(   17) = (   0.2524158   0.4371964  -0.0872003), wk =   0.0625000
        k(   18) = (   0.2524158   0.4371964  -0.0436000), wk =   0.0625000
        k(   19) = (   0.2524153  -0.4371962   0.0000001), wk =   0.0625000
        k(   20) = (   0.2524153  -0.4371961   0.0436003), wk =   0.0625000
        k(   21) = (   0.2524153  -0.4371962  -0.0872005), wk =   0.0625000
        k(   22) = (   0.2524153  -0.4371962  -0.0436002), wk =   0.0625000
        k(   23) = (   0.2524155  -0.1457319   0.0000001), wk =   0.0625000
        k(   24) = (   0.2524155  -0.1457319   0.0436004), wk =   0.0625000
        k(   25) = (   0.2524154  -0.1457320  -0.0872004), wk =   0.0625000
        k(   26) = (   0.2524155  -0.1457320  -0.0436001), wk =   0.0625000
        k(   27) = (  -0.5048313  -0.2914645  -0.0000004), wk =   0.0312500
        k(   28) = (  -0.5048313  -0.2914645   0.0435999), wk =   0.0625000
        k(   29) = (  -0.5048314  -0.2914645  -0.0872009), wk =   0.0312500
        k(   30) = (  -0.5048312  -0.0000003  -0.0000003), wk =   0.0625000
        k(   31) = (  -0.5048311  -0.0000003   0.0435999), wk =   0.0625000
        k(   32) = (  -0.5048312  -0.0000003  -0.0872008), wk =   0.0625000
        k(   33) = (  -0.5048312  -0.0000003  -0.0436006), wk =   0.0625000
        k(   34) = (  -0.5048317  -0.8743929  -0.0000005), wk =   0.0312500
        k(   35) = (  -0.5048317  -0.8743929   0.0435997), wk =   0.0625000
        k(   36) = (  -0.5048317  -0.8743929  -0.0872010), wk =   0.0312500

     Initial potential from superposition of free atoms

     starting charge      77.9972, renormalised to      78.0000
     Starting wfcs are   54 randomized atomic wfcs
     Checking if some PAW data can be deallocated...

     Self-consistent Calculation

     iteration #  1     ecut=    77.00 Ry     beta= 0.20
     Davidson diagonalization with overlap
     c_bands:  1 eigenvalues not converged
     c_bands:  2 eigenvalues not converged
     c_bands:  2 eigenvalues not converged
     c_bands:  2 eigenvalues not converged
     c_bands:  1 eigenvalues not converged
     c_bands:  1 eigenvalues not converged
     c_bands:  1 eigenvalues not converged
     c_bands:  2 eigenvalues not converged
     c_bands:  2 eigenvalues not converged
     c_bands:  2 eigenvalues not converged
     c_bands:  2 eigenvalues not converged
     c_bands:  2 eigenvalues not converged
     ethr =  1.00E-06,  avg # of iterations = 19.1

[...]

     total energy              =   -1490.35442080 Ry
     estimated scf accuracy    <       0.00000001 Ry

     iteration # 16     ecut=    77.00 Ry     beta= 0.20
     Davidson diagonalization with overlap
     ethr =  1.59E-11,  avg # of iterations =  4.2

     End of self-consistent calculation

[...]

          k = 0.2524-0.1457-0.0436 ( 12127 PWs)   bands (ev):

[...]

          k =-0.5048-0.8744-0.0872 ( 12120 PWs)   bands (ev):

   -50.1273 -50.1273 -50.1272 -24.4996 -24.4995 -24.4995 -24.2427 -24.2426
   -24.2426 -24.1863 -24.1862 -24.1862  -1.6591  -1.5981  -1.5980  -1.4634
    -1.4633  -1.3913   4.6572   4.7721   4.7722   5.6482   5.6484   5.7896
     6.3647   6.6007   6.6008   7.4335   7.5018   7.5018   8.5383   8.5385
     9.0127   9.6591   9.6593   9.8336   9.8982  10.0482  10.0482  13.0005
    13.0006  13.0422  13.4172  13.5540  13.5541  14.4694  14.4695

     the Fermi energy is    11.9439 ev

!    total energy              =   -1490.35442017 Ry
     total all-electron energy =    -29085.345054 Ry
     estimated scf accuracy    <          2.0E-09 Ry
     smearing contrib. (-TS)   =      -0.00000000 Ry
     internal energy E=F+TS    =   -1490.35442017 Ry

     The total energy is F=E-TS. E is the sum of the following terms:
     one-electron contribution =    -233.07747631 Ry
     hartree contribution      =     157.37821180 Ry
     xc contribution           =     -89.27132886 Ry
     ewald contribution        =    -366.20616264 Ry
     DFT-D3 Dispersion         =      -0.26644710 Ry
     one-center paw contrib.   =    -958.91121704 Ry

     convergence has been achieved in  16 iterations

     Forces acting on atoms (cartesian axes, Ry/au):

     atom    1 type  1   force =    -0.00000032    0.00000005    0.00001621
     atom    2 type  1   force =    -0.00000031   -0.00000014    0.00001586
     atom    3 type  1   force =    -0.00000024   -0.00000029   -0.00001756
     atom    4 type  2   force =     0.00000018   -0.00000018    0.00000106
     atom    5 type  2   force =     0.00000031    0.00000048   -0.00000533
     atom    6 type  2   force =     0.00000007   -0.00000008   -0.00001177
     atom    7 type  2   force =    -0.00000008    0.00000010    0.00000958
     atom    8 type  2   force =     0.00000014   -0.00000024   -0.00000113
     atom    9 type  2   force =     0.00000027    0.00000030   -0.00000692
     The non-local contrib.  to forces
     atom    1 type  1   force =    -0.00000002   -0.00000030   -0.00148205
     atom    2 type  1   force =     0.00000006    0.00000011   -0.00149099
     atom    3 type  1   force =     0.00000002    0.00000005   -0.00150628
     atom    4 type  2   force =     0.00000039    0.00000005    0.26476366
     atom    5 type  2   force =     0.00000024    0.00000053    0.26475540
     atom    6 type  2   force =     0.00000034    0.00000003    0.26476221
     atom    7 type  2   force =    -0.00000028    0.00000009   -0.26158754
     atom    8 type  2   force =     0.00000004   -0.00000012   -0.26160435
     atom    9 type  2   force =     0.00000001    0.00000020   -0.26159133
     The ionic contribution  to forces
     atom    1 type  1   force =     0.00000865    0.00000560   -0.01455245
     atom    2 type  1   force =     0.00000952    0.00000550    0.01052309
     atom    3 type  1   force =     0.00000959    0.00000406    0.00490526
     atom    4 type  2   force =    -0.00001172   -0.00000714  -13.87242824
     atom    5 type  2   force =    -0.00001236   -0.00000156  -13.87461326
     atom    6 type  2   force =    -0.00001288   -0.00000557  -13.88303743
     atom    7 type  2   force =     0.00000083    0.00000024   13.88085613
     atom    8 type  2   force =     0.00000417   -0.00000300   13.87823733
     atom    9 type  2   force =     0.00000419    0.00000188   13.87010958
     The local contribution  to forces
     atom    1 type  1   force =    -0.00000873   -0.00000547    0.01610521
     atom    2 type  1   force =    -0.00000976   -0.00000584   -0.00889444
     atom    3 type  1   force =    -0.00000950   -0.00000447   -0.00369072
     atom    4 type  2   force =     0.00001152    0.00000696   13.60988824
     atom    5 type  2   force =     0.00001260    0.00000156   13.61201047
     atom    6 type  2   force =     0.00001260    0.00000540   13.62048019
     atom    7 type  2   force =    -0.00000037   -0.00000019  -13.62138758
     atom    8 type  2   force =    -0.00000405    0.00000298  -13.61885755
     atom    9 type  2   force =    -0.00000378   -0.00000180  -13.61068775
     The core correction contribution to forces
     atom    1 type  1   force =     0.00000001    0.00000002    0.00007060
     atom    2 type  1   force =     0.00000000    0.00000000    0.00006951
     atom    3 type  1   force =     0.00000000    0.00000000    0.00006991
     atom    4 type  2   force =    -0.00000000   -0.00000000   -0.00205626
     atom    5 type  2   force =     0.00000001   -0.00000002   -0.00205610
     atom    6 type  2   force =    -0.00000000   -0.00000000   -0.00205607
     atom    7 type  2   force =     0.00000001   -0.00000001    0.00199236
     atom    8 type  2   force =     0.00000000    0.00000001    0.00199258
     atom    9 type  2   force =     0.00000000   -0.00000001    0.00199242
     The Hubbard contrib.    to forces
     atom    1 type  1   force =     0.00000000    0.00000000    0.00000000
     atom    2 type  1   force =     0.00000000    0.00000000    0.00000000
     atom    3 type  1   force =     0.00000000    0.00000000    0.00000000
     atom    4 type  2   force =     0.00000000    0.00000000    0.00000000
     atom    5 type  2   force =     0.00000000    0.00000000    0.00000000
     atom    6 type  2   force =     0.00000000    0.00000000    0.00000000
     atom    7 type  2   force =     0.00000000    0.00000000    0.00000000
     atom    8 type  2   force =     0.00000000    0.00000000    0.00000000
     atom    9 type  2   force =     0.00000000    0.00000000    0.00000000
     The SCF correction term to forces
     atom    1 type  1   force =    -0.00000019    0.00000020   -0.00009104
     atom    2 type  1   force =    -0.00000010    0.00000009   -0.00015404
     atom    3 type  1   force =    -0.00000032    0.00000006    0.00024078
     atom    4 type  2   force =     0.00000003   -0.00000005   -0.00002227
     atom    5 type  2   force =    -0.00000015   -0.00000004    0.00004159
     atom    6 type  2   force =     0.00000005    0.00000004   -0.00001781
     atom    7 type  2   force =    -0.00000023   -0.00000003   -0.00004307
     atom    8 type  2   force =     0.00000003   -0.00000012    0.00005173
     atom    9 type  2   force =    -0.00000012    0.00000002   -0.00001014

     DFT-D3 dispersion contribution to forces:
     atom    1 type  1   force =    -0.00000000   -0.00000000   -0.00003412
     atom    2 type  1   force =    -0.00000000   -0.00000000   -0.00003732
     atom    3 type  1   force =    -0.00000000   -0.00000000   -0.00003657
     atom    4 type  2   force =     0.00000000   -0.00000000   -0.00014412
     atom    5 type  2   force =     0.00000000    0.00000000   -0.00014350
     atom    6 type  2   force =     0.00000000    0.00000000   -0.00014291
     atom    7 type  2   force =    -0.00000000   -0.00000000    0.00017923
     atom    8 type  2   force =     0.00000000   -0.00000000    0.00017908
     atom    9 type  2   force =     0.00000000    0.00000000    0.00018024

     Total force =     0.000034     Total SCF correction =     0.000312
     SCF correction compared to forces is large: reduce conv_thr to get better values

     Computing stress (Cartesian axis) and pressure

          total   stress  (Ry/bohr**3)                   (kbar)     P=        0.02
  -0.00000018   0.00000001   0.00000000           -0.03        0.00        0.00
   0.00000001  -0.00000019  -0.00000000            0.00       -0.03       -0.00
   0.00000000  -0.00000000   0.00000078            0.00       -0.00        0.11

     Writing all to output data dir ./outdir/pwscf.save/

     General routines

     Parallel routines

   This run was terminated on:  15:51: 2  18Jul2023

   JOB DONE.