     Program PWSCF v.7.3 starts on  5Apr2024 at 20:12:26

     Waiting for input...
     Reading input from standard input
Warning: card &CELL ignored
Warning: card / ignored

     Current dimensions of program PWSCF are:
     Max number of different atomic species (ntypx) = 10
     Max number of k-points (npk) =  40000
     Max angular momentum in pseudopotentials (lmaxx) =  4
     file Mo.pbe-spn-kjpaw_psl.1.0.0.UPF: wavefunction(s)  4S 4D renormalized
     file S.pbe-n-kjpaw_psl.1.0.0.UPF: wavefunction(s)  3S 3P renormalized
     file Pd.pbe-spn-kjpaw_psl.1.0.0.UPF: wavefunction(s)  4S 5S 4D renormalized
     file Pt.pbe-spfn-kjpaw_psl.1.0.0.UPF: wavefunction(s)  5P 4F renormalized

     R & G space division:  proc/nbgrp/npool/nimage =      36
     Subspace diagonalization in iterative solution of the eigenvalue problem:
     one sub-group per band group will be used

     Using Slab Decomposition

     bravais-lattice index     =            0
     lattice parameter (alat)  =      23.8199  a.u.
     unit-cell volume          =   33861.0370 (a.u.)^3
     number of atoms/cell      =          195
     number of atomic types    =            4
     number of electrons       =      1732.00
     number of Kohn-Sham states=         1039
     kinetic-energy cutoff     =      77.0000  Ry
     charge density cutoff     =     539.0000  Ry
     scf convergence threshold =      1.0E-06
     mixing beta               =       0.2000
     number of iterations used =            8  plain     mixing
     energy convergence thresh.=      1.0E-04
     force convergence thresh. =      1.0E-03
     Exchange-correlation= SLA  PW   PBX  PBC
                           (   1   4   3   4   0   0   0)
     nstep                     =         1000

     Effective Screening Medium Method
     Boundary Conditions: Vacuum-Slab-Vacuum
     total charge in unit cell        =   0.0000
     grid points for fit at edges     =        4

     celldm(1)=  23.819920  celldm(2)=   0.000000  celldm(3)=   0.000000
     celldm(4)=   0.000000  celldm(5)=   0.000000  celldm(6)=   0.000000

     crystal axes: (cart. coord. in units of alat)
               a(1) = (   1.000000   0.000000   0.000000 )
               a(2) = (  -0.499999   0.866026   0.000000 )
               a(3) = (   0.000000   0.000000   2.893000 )

     reciprocal axes: (cart. coord. in units 2 pi/alat)
               b(1) = (  1.000000  0.577349  0.000000 )
               b(2) = (  0.000000  1.154700  0.000000 )
               b(3) = (  0.000000  0.000000  0.345662 )

     PseudoPot. # 1 for Mo read from file:
     ./pseudo/Mo.pbe-spn-kjpaw_psl.1.0.0.UPF
     MD5 check sum: 317bf72632116215fd98f72de1686f13
     Pseudo is Projector augmented-wave + core cor, Zval = 14.0
     Generated using 'atomic' code by A. Dal Corso  v.7.2
     Shape of augmentation charge: PSQ
     Using radial grid of 1229 points,  6 beta functions with:
                l(1) =   0
                l(2) =   0
                l(3) =   1
                l(4) =   1
                l(5) =   2
                l(6) =   2
     Q(r) pseudized with 0 coefficients

     PseudoPot. # 2 for S  read from file:
     ./pseudo/S.pbe-n-kjpaw_psl.1.0.0.UPF
     MD5 check sum: 8b7b5302570d38d5e87fed6a1065abda
     Pseudo is Projector augmented-wave + core cor, Zval =  6.0
     Generated using 'atomic' code by A. Dal Corso  v.7.2
     Shape of augmentation charge: PSQ
     Using radial grid of 1151 points,  6 beta functions with:
                l(1) =   0
                l(2) =   0
                l(3) =   1
                l(4) =   1
                l(5) =   2
                l(6) =   2
     Q(r) pseudized with 0 coefficients

     PseudoPot. # 3 for Pd read from file:
     ./pseudo/Pd.pbe-spn-kjpaw_psl.1.0.0.UPF
     MD5 check sum: a60571a671f2502b8a6a4569d20a6edb
     Pseudo is Projector augmented-wave + core cor, Zval = 18.0
     Generated using 'atomic' code by A. Dal Corso  v.7.2
     Shape of augmentation charge: PSQ
     Using radial grid of 1235 points,  6 beta functions with:
                l(1) =   0
                l(2) =   0
                l(3) =   1
                l(4) =   1
                l(5) =   2
                l(6) =   2
     Q(r) pseudized with 0 coefficients

     PseudoPot. # 4 for Pt read from file:
     ./pseudo/Pt.pbe-spfn-kjpaw_psl.1.0.0.UPF
     MD5 check sum: 620096ebf4e6ebacc94de60fd67efcb5
     Pseudo is Projector augmented-wave + core cor, Zval = 32.0
     Generated using 'atomic' code by A. Dal Corso  v.7.2
     Shape of augmentation charge: PSQ
     Using radial grid of 1277 points,  8 beta functions with:
                l(1) =   0
                l(2) =   0
                l(3) =   1
                l(4) =   1
                l(5) =   2
                l(6) =   2
                l(7) =   3
                l(8) =   3
     Q(r) pseudized with 0 coefficients

     atomic species   valence    mass     pseudopotential
     Mo               14.00    95.95000     Mo( 1.00)
     S                 6.00    32.06000     S ( 1.00)
     Pd               18.00   106.42000     Pd( 1.00)
     Pt               32.00   195.08400     Pt( 1.00)

     No symmetry found

   Cartesian axes

     site n.     atom                  positions (alat units)
         1        Mo     tau(   1) = (   0.0000010   0.1443372  -0.7272732  )
         2        Mo     tau(   2) = (   0.1249995   0.0721706  -0.2424038  )
         3        S      tau(   3) = (   0.0000015   0.1443386  -0.3667807  )
         4        S      tau(   4) = (   0.1250010   0.0721682  -0.6030489  )
         5        S      tau(   5) = (   0.1250010   0.0721683  -0.8514963  )
         6        S      tau(   6) = (   0.0000015   0.1443389  -0.1180260  )
         7        Mo     tau(   7) = (   0.0000222   0.1444187   0.2425595  )
         8        Mo     tau(   8) = (   0.1245966   0.0727010   0.7278826  )
         9        S      tau(   9) = (   0.0000166   0.1448419   0.6020343  )
        10        S      tau(  10) = (   0.1250561   0.0722903   0.3669179  )
        11        S      tau(  11) = (   0.1250140   0.0722444   0.1181576  )
        12        S      tau(  12) = (  -0.0013476   0.1442175   0.8515296  )
        13        Mo     tau(  13) = (  -0.1249989   0.3608437  -0.7272732  )
        14        Mo     tau(  14) = (   0.0000030   0.2886752  -0.2424042  )
        15        S      tau(  15) = (  -0.1249977   0.3608450  -0.3667802  )
        16        S      tau(  16) = (   0.0000012   0.2886747  -0.6030489  )
        17        S      tau(  17) = (   0.0000012   0.2886748  -0.8514963  )
        18        S      tau(  18) = (  -0.1249977   0.3608454  -0.1180274  )
        19        Mo     tau(  19) = (  -0.1249777   0.3609089   0.2425603  )
        20        Mo     tau(  20) = (  -0.0029637   0.2882853   0.7270120  )
        21        S      tau(  21) = (  -0.1256983   0.3625185   0.6019747  )
        22        S      tau(  22) = (   0.0000591   0.2887797   0.3669668  )
        23        S      tau(  23) = (   0.0000075   0.2887346   0.1181682  )
        24        S      tau(  24) = (  -0.1270233   0.3617098   0.8514678  )
        25        Mo     tau(  25) = (  -0.2499987   0.5773502  -0.7272732  )
        26        Mo     tau(  26) = (  -0.1249977   0.5051839  -0.2424055  )
        27        S      tau(  27) = (  -0.2499981   0.5773518  -0.3667809  )
        28        S      tau(  28) = (  -0.1249986   0.5051812  -0.6030489  )
        29        S      tau(  29) = (  -0.1249986   0.5051813  -0.8514963  )
        30        S      tau(  30) = (  -0.2499979   0.5773512  -0.1180266  )
        31        Mo     tau(  31) = (  -0.2499821   0.5774144   0.2425369  )
        32        Mo     tau(  32) = (  -0.1258229   0.5064885   0.7278520  )
        33        S      tau(  33) = (  -0.2493952   0.5788088   0.6023234  )
        34        S      tau(  34) = (  -0.1249462   0.5052707   0.3669162  )
        35        S      tau(  35) = (  -0.1249880   0.5052329   0.1181602  )
        36        S      tau(  36) = (  -0.2509230   0.5788413   0.8515814  )
        37        Mo     tau(  37) = (  -0.3749985   0.7938567  -0.7272732  )
        38        Mo     tau(  38) = (  -0.2500001   0.7216874  -0.2424031  )
        39        S      tau(  39) = (  -0.3749980   0.7938584  -0.3667800  )
        40        S      tau(  40) = (  -0.2499984   0.7216877  -0.6030489  )
        41        S      tau(  41) = (  -0.2499984   0.7216878  -0.8514963  )
        42        S      tau(  42) = (  -0.3749982   0.7938585  -0.1180264  )
        43        Mo     tau(  43) = (  -0.3749910   0.7939458   0.2425394  )
        44        Mo     tau(  44) = (  -0.2499391   0.7230231   0.7269923  )
        45        S      tau(  45) = (  -0.3746478   0.7955125   0.6023635  )
        46        S      tau(  46) = (  -0.2500018   0.7217675   0.3668983  )
        47        S      tau(  47) = (  -0.2499845   0.7217593   0.1181709  )
        48        S      tau(  48) = (  -0.3753625   0.7942039   0.8516391  )
        49        Mo     tau(  49) = (   0.2500010   0.1443372  -0.7272732  )
        50        Mo     tau(  50) = (   0.3750034   0.0721723  -0.2424032  )
        51        S      tau(  51) = (   0.2500017   0.1443391  -0.3667788  )
        52        S      tau(  52) = (   0.3750010   0.0721682  -0.6030489  )
        53        S      tau(  53) = (   0.3750010   0.0721683  -0.8514963  )
        54        S      tau(  54) = (   0.2500016   0.1443391  -0.1180271  )
        55        Mo     tau(  55) = (   0.2500120   0.1444423   0.2425270  )
        56        Mo     tau(  56) = (   0.3753385   0.0727176   0.7280385  )
        57        S      tau(  57) = (   0.2501061   0.1471948   0.6059873  )
        58        S      tau(  58) = (   0.3749665   0.0722824   0.3669588  )
        59        S      tau(  59) = (   0.3750194   0.0722259   0.1181828  )
        60        S      tau(  60) = (   0.2503224   0.1381707   0.8567863  )
[...]
       181        Mo     tau( 181) = (   0.3750016   0.7938567  -0.7272732  )
       182        Mo     tau( 182) = (   0.5000025   0.7216901  -0.2424039  )
       183        S      tau( 183) = (   0.3750019   0.7938578  -0.3667793  )
       184        S      tau( 184) = (   0.5000016   0.7216877  -0.6030489  )
       185        S      tau( 185) = (   0.5000016   0.7216878  -0.8514963  )
       186        S      tau( 186) = (   0.3750020   0.7938579  -0.1180272  )
       187        Mo     tau( 187) = (   0.3749890   0.7939067   0.2425443  )
       188        Mo     tau( 188) = (   0.5002702   0.7230996   0.7264112  )
       189        S      tau( 189) = (   0.3747820   0.7948530   0.6019718  )
       190        S      tau( 190) = (   0.5000014   0.7217825   0.3669010  )
       191        S      tau( 191) = (   0.5000049   0.7217309   0.1181759  )
       192        S      tau( 192) = (   0.3757788   0.7958654   0.8513800  )
       193        Pd     tau( 193) = (   0.1298567   0.5028633   0.9631584  )
       194        Pd     tau( 194) = (   0.2489715   0.2959876   0.9631435  )
       195        Pt     tau( 195) = (   0.1894096   0.3994460   1.1218601  )

     DFT-D3 Dispersion Correction (3-body terms):
       Reference C6 values for interpolation:

[...]
   -40.8831 -40.8803 -40.8726 -40.8653 -40.8631 -40.8630 -40.8629 -40.8628
   -40.8628 -40.8628 -40.8627 -40.8627 -40.8618 -40.8618 -40.8618 -40.8618
   -40.8579 -40.8511 -40.8484 -40.8282 -40.8282 -40.8282 -40.8282 -40.8280
   -40.8280 -40.8280 -40.8280 -40.8270 -40.8270 -40.8270 -40.8270 -40.8245
   -40.8202 -40.8179 -40.8161 -40.8160 -40.8159 -40.8159 -40.8148 -40.8148
   -40.8109 -40.8067 -40.7968 -40.7966 -40.7966 -40.7965 -40.7955 -40.7955
   -40.7918 -40.7903 -40.7798 -40.7797 -40.7796 -40.7796 -40.7785 -40.7785
   -40.7775 -40.7657 -40.7538 -40.7491 -40.7490 -40.7489 -40.7489 -40.7478
   -40.7478 -40.7402 -40.7284 -20.2046 -20.0797 -20.0591 -20.0194 -19.9608
   -19.9282 -19.8519 -19.8390 -19.6957 -19.6470 -19.6204 -19.5950 -19.5297
   -19.5071 -19.4266 -19.4157 -19.2781 -19.0082 -18.9896 -18.9492 -18.9298
   -18.9292 -18.9162 -18.9075 -18.9004 -18.8919 -18.8739 -18.8548 -18.8449
   -18.8312 -18.8197 -18.8112 -18.7800 -18.7704 -18.7596 -18.7443 -18.7414
   -18.7373 -18.7210 -18.7074 -18.7018 -18.6695 -18.6682 -18.6643 -18.6599
   -18.6273 -18.6040 -18.6002 -18.5968 -18.5665 -18.5556 -18.5428 -18.5259
   -18.5077 -18.4957 -18.4680 -18.4448 -18.4404 -18.4341 -18.4224 -18.3902
   -18.3732 -18.3706 -18.3514 -18.3232 -18.3079 -18.3022 -18.2991 -18.2946
   -18.2931 -18.2895 -18.2859 -18.2764 -18.2643 -18.2635 -18.2617 -18.2583
   -18.2565 -18.2462 -18.2393 -18.2386 -18.2313 -18.2293 -18.2196 -18.2014
   -18.1994 -18.1970 -18.1931 -18.1903 -18.1887 -18.1846 -18.1792 -18.1780
   -18.1682 -18.1378 -18.1370 -18.1291 -18.1257 -18.1205 -18.1095 -18.0839
   -18.0832 -18.0760 -18.0651 -18.0413 -18.0398 -18.0365 -18.0300 -18.0183
   -18.0123 -18.0115 -18.0112 -18.0109 -18.0090 -18.0076 -18.0010 -17.9949
   -17.9901 -17.9761 -17.9750 -17.9528 -17.9522 -17.9338 -17.9328 -17.9192
   -17.9185 -17.9114 -17.9114 -12.0873 -12.0595 -11.9108 -11.8979 -11.8099
   -11.7798 -11.7197 -11.7084 -11.6915 -11.6854 -11.6826 -11.6716 -11.6620
   -11.6540 -11.6381 -11.6054 -11.5878 -11.5728 -11.5670 -11.5519 -11.5448
   -11.5240 -11.5122 -11.5065 -11.4881 -11.4701 -11.4631 -11.4621 -11.4537
   -11.4505 -11.4485 -11.4429 -11.4386 -11.4016 -11.3951 -11.3841 -11.3807
   -11.3664 -11.3626 -11.3589 -11.3576 -11.3446 -11.3377 -11.3375 -11.3123
   -11.3066 -11.2772 -11.2654 -11.2547 -11.2491 -11.2230 -11.1803 -11.1756
   -11.1365 -11.1287 -11.1227 -11.1145 -11.1039 -11.0928 -11.0806 -11.0738
   -11.0464 -11.0428 -11.0249 -11.0239 -11.0183 -11.0090 -11.0038 -11.0031
   -11.0029 -11.0006 -10.9990 -10.9923 -10.9882 -10.9858 -10.9849 -10.9839
[...]
    -3.5966  -3.5551  -3.5473  -3.5415  -3.5385  -3.5362  -3.5358  -3.5336
    -3.5291  -3.5070  -3.5004  -3.4901  -3.4811  -3.4803  -3.4754  -3.4726
    -3.4693  -3.4672  -3.4649  -3.4473  -3.4436  -3.4366  -3.4347  -3.4230
    -3.4194  -3.4149  -3.4110  -3.4019  -3.4016  -3.4003  -3.3883  -3.3829
    -3.3765  -3.3686  -3.3648  -3.3596  -3.3521  -3.3521  -3.3508  -3.3482
    -3.3432  -3.2944  -3.2893  -3.2737  -3.2618  -3.2575  -3.2547  -3.2519
    -3.2488  -3.2175  -3.2148  -3.2142  -3.2133  -3.2123  -3.2115  -3.2035
    -3.2018  -3.2006  -3.1988  -3.1944  -3.1893  -3.1827  -3.1802  -3.1703
    -3.1668  -3.1663  -3.1611  -3.1599  -3.1531  -3.1514  -3.1461  -3.1403
    -3.1384  -3.1360  -3.1344  -3.1247  -3.1218  -3.1182  -3.1086  -3.0853
    -3.0847  -3.0793  -3.0778  -3.0676  -3.0643  -3.0570  -3.0508  -2.9857
    -2.9823  -2.9814  -2.9787  -2.9279  -2.9129  -2.9078  -2.8991  -2.8115
    -2.8010  -2.7818  -2.7743  -2.7648  -2.7601  -2.7399  -2.7348  -2.7307
    -2.7231  -2.7181  -2.7162  -2.7139  -2.7115  -2.6060  -2.5946  -2.5906
    -2.5864  -2.5806  -2.5758  -2.5559  -2.5457  -2.5348  -2.5328

     the Fermi energy is    -4.9736 ev

!    total energy              =  -34492.22757341 Ry
     total all-electron energy =   -677498.107260 Ry
     estimated scf accuracy    <          4.5E-09 Ry
     smearing contrib. (-TS)   =      -0.00668294 Ry
     internal energy E=F+TS    =  -34492.22089047 Ry

     The total energy is F=E-TS. E is the sum of the following terms:
     one-electron contribution = 1207212.43211681 Ry
     hartree contribution      = -603795.59463573 Ry
     xc contribution           =   -2041.35595465 Ry
     ewald contribution        = -614303.98055079 Ry
     DFT-D3 Dispersion         =      -5.44792730 Ry
     one-center paw contrib.   =  -21558.27393880 Ry

     convergence has been achieved in  15 iterations

     negative rho (up, down):  8.871E-04 0.000E+00

     Forces acting on atoms (cartesian axes, Ry/au):

     atom    1 type  1   force =     0.00000075   -0.00000033    0.00068324
     atom    2 type  1   force =     0.00002270   -0.00000227   -0.00000017
     atom    3 type  2   force =     0.00000150   -0.00000041   -0.00000138
     atom    4 type  2   force =    -0.00000046    0.00000062    0.00161289
     atom    5 type  2   force =    -0.00000078    0.00000017   -0.00236311
     atom    6 type  2   force =     0.00000119    0.00001255    0.00002089
     atom    7 type  1   force =     0.00000190    0.00003222    0.00002538
     atom    8 type  1   force =    -0.00015679   -0.00014698    0.00027949
     atom    9 type  2   force =     0.00024990    0.00026000    0.00007805
     atom   10 type  2   force =    -0.00001208    0.00004157    0.00000130
     atom   11 type  2   force =     0.00000296    0.00002796    0.00001259
     atom   12 type  2   force =    -0.00047874   -0.00042429    0.00043685
     atom   13 type  1   force =     0.00000073   -0.00000034    0.00068289
     atom   14 type  1   force =    -0.00001107    0.00001805   -0.00000362
     atom   15 type  2   force =     0.00000377   -0.00000082    0.00000093
     atom   16 type  2   force =    -0.00000024    0.00000051    0.00161291
     atom   17 type  2   force =    -0.00000047    0.00000008   -0.00236346
     atom   18 type  2   force =     0.00000620    0.00001077    0.00001503
     atom   19 type  1   force =     0.00001201    0.00000621    0.00002415
     atom   20 type  1   force =     0.00012867    0.00005431    0.00019936
     atom   21 type  2   force =     0.00038909    0.00005007    0.00005850
     atom   22 type  2   force =     0.00002201    0.00003442    0.00003023
     atom   23 type  2   force =    -0.00002405    0.00000675    0.00003147
     atom   24 type  2   force =    -0.00058514   -0.00023610    0.00043305
     atom   25 type  1   force =     0.00000100   -0.00000060    0.00068300
     atom   26 type  1   force =     0.00000026   -0.00000406    0.00001277
     atom   27 type  2   force =     0.00000091    0.00000110   -0.00000187
     atom   28 type  2   force =    -0.00000021    0.00000044    0.00161287
     atom   29 type  2   force =    -0.00000045   -0.00000012   -0.00236311
     atom   30 type  2   force =     0.00000161    0.00000731    0.00002073
     atom   31 type  1   force =     0.00001519    0.00001667    0.00000340
     atom   32 type  1   force =    -0.00018664   -0.00008343    0.00027843
     atom   33 type  2   force =     0.00042036   -0.00021034    0.00001725
     atom   34 type  2   force =     0.00001398   -0.00000001    0.00000341
     atom   35 type  2   force =     0.00000670    0.00002554    0.00001303
     atom   36 type  2   force =    -0.00000129    0.00000480    0.00003800
     atom   37 type  1   force =     0.00000129   -0.00000037    0.00068287
     atom   38 type  1   force =     0.00002624    0.00002840   -0.00001002
     atom   39 type  2   force =    -0.00000005    0.00000035    0.00000200
     atom   40 type  2   force =    -0.00000034    0.00000063    0.00161286
     atom   41 type  2   force =    -0.00000064   -0.00000002   -0.00236287
     atom   42 type  2   force =    -0.00000141    0.00000960    0.00002123
     atom   43 type  1   force =     0.00000695    0.00003323    0.00000333
     atom   44 type  1   force =    -0.00012898   -0.00010703   -0.00008857
     atom   45 type  2   force =     0.00006713    0.00045264    0.00002370
     atom   46 type  2   force =     0.00000384    0.00002386    0.00002394
     atom   47 type  2   force =     0.00002391    0.00003750   -0.00000405
     atom   48 type  2   force =     0.00004082   -0.00002523    0.00003316
     atom   49 type  1   force =     0.00000071    0.00000016    0.00068309
     atom   50 type  1   force =    -0.00002138   -0.00002155   -0.00000414
     atom   51 type  2   force =    -0.00000037    0.00000178    0.00000306
     atom   52 type  2   force =    -0.00000077    0.00000049    0.00161306
     atom   53 type  2   force =    -0.00000083    0.00000007   -0.00236310
     atom   54 type  2   force =    -0.00000079    0.00000970    0.00002467
     atom   55 type  1   force =    -0.00000334    0.00002172    0.00001348
     atom   56 type  1   force =    -0.00017561   -0.00030846    0.00015515
     atom   57 type  2   force =    -0.00016878    0.00029219    0.00021547
     atom   58 type  2   force =     0.00000134    0.00003508   -0.00001378
     atom   59 type  2   force =    -0.00000233    0.00001770    0.00001291
     atom   60 type  2   force =     0.00003750   -0.00017957   -0.00032252
[...]
     atom  181 type  1   force =     0.00000122   -0.00000055    0.00068302
     atom  182 type  1   force =    -0.00001002   -0.00000403    0.00000017
     atom  183 type  2   force =    -0.00000224   -0.00000219    0.00000172
     atom  184 type  2   force =    -0.00000054    0.00000050    0.00161292
     atom  185 type  2   force =    -0.00000080   -0.00000003   -0.00236298
     atom  186 type  2   force =    -0.00000398    0.00000596    0.00002282
     atom  187 type  1   force =    -0.00000418    0.00001707   -0.00000108
     atom  188 type  1   force =     0.00008388    0.00016804   -0.00011706
     atom  189 type  2   force =    -0.00014215    0.00022227   -0.00004936
     atom  190 type  2   force =     0.00001231    0.00001653   -0.00000946
     atom  191 type  2   force =     0.00001354    0.00003449   -0.00000395
     atom  192 type  2   force =    -0.00006560   -0.00019654   -0.00002904
     atom  193 type  3   force =     0.00018858    0.00011305   -0.00017945
     atom  194 type  3   force =     0.00018334    0.00003940   -0.00017057
     atom  195 type  4   force =     0.00076965    0.00043617    0.00013717

     Total force =     0.003063     Total SCF correction =     0.000253
     Energy error            =      1.6E-05 Ry
     Gradient error          =      7.7E-04 Ry/Bohr

     bfgs converged in  21 scf cycles and  20 bfgs steps
     (criteria: energy <  1.0E-04 Ry, force <  1.0E-03 Ry/Bohr)

     End of BFGS Geometry Optimization

     Final energy             =  -34492.2275734072 Ry

     File ./outdir/pwscf.bfgs deleted, as requested
Begin final coordinates

ATOMIC_POSITIONS (angstrom)
Mo               0.0000119917        1.8193638619       -9.1672481230    0   0   0
Mo               1.5756136568        0.9097075315       -3.0554901653    0   0   0
S                0.0000188998        1.8193822938       -4.6232556019    0   0   0
S                1.5756321638        0.9096773839       -7.6014065489    0   0   0
S                1.5756326175        0.9096785128      -10.7330757790    0   0   0
S                0.0000189190        1.8193860094       -1.4877129945    0   0   0
Mo               0.0003175612        1.8217064536        3.0581374859
Mo               1.5718410190        0.9197328069        9.1715907080
S                0.0033760681        1.8240905394        7.5835453372
S                1.5765545903        0.9122271106        4.6254994481
S                1.5756214498        0.9118688221        1.4899707752
S               -0.0124518313        1.8203696499       10.7312835012
Mo              -1.5756053507        4.5484193819       -9.1672481230    0   0   0
Mo               0.0000378379        3.6387394919       -3.0554952701    0   0   0
S               -1.5755913433        4.5484363582       -4.6232494962    0   0   0
S                0.0000148214        3.6387329039       -7.6014065489    0   0   0
S                0.0000152751        3.6387340328      -10.7330757790    0   0   0
S               -1.5755906502        4.5484413613       -1.4877305502    0   0   0
Mo              -1.5753534983        4.5508800850        3.0581298976
Mo              -0.0371310450        3.6319732868        9.1551107399
S               -1.5825656568        4.5707896939        7.5836037332
S                0.0006872031        3.6414514973        4.6262493261
S                0.0001392379        3.6409326647        1.4902673369
S               -1.5937402643        4.5592188688       10.7313479135
Mo              -3.1512226931        7.2774749019       -9.1672481230    0   0   0
Mo              -1.5755910988        6.3678216792       -3.0555115988    0   0   0
S               -3.1512162438        7.2774954350       -4.6232578178    0   0   0
S               -1.5756025210        6.3677884239       -7.6014065489    0   0   0
S               -1.5756020673        6.3677895528      -10.7330757790    0   0   0
S               -3.1512127704        7.2774877076       -1.4877200710    0   0   0
Mo              -3.1511078749        7.2798119999        3.0577588225
Mo              -1.5815404450        6.3814204381        9.1715961898
S               -3.1479376455        7.2957413830        7.5954154085
S               -1.5749566440        6.3708067907        4.6254875805
S               -1.5755160342        6.3698824843        1.4899679962
S               -3.1626250422        7.2940807128       10.7339882374
Mo              -4.7268400355       10.0065304219       -9.1672481230    0   0   0
Mo              -3.1512405618        9.0968403586       -3.0554816746    0   0   0
S               -4.7268341792       10.0065523623       -4.6232463762    0   0   0
S               -3.1512198634        9.0968439439       -7.6014065489    0   0   0
S               -3.1512194097        9.0968450728      -10.7330757790    0   0   0
S               -4.7268370797       10.0065537885       -1.4877176751    0   0   0
Mo              -4.7267001926       10.0088058243        3.0577806182
Mo              -3.1468719037        9.1140740039        9.1656937877
S               -4.7221109506       10.0221076590        7.5953991927
S               -3.1509906825        9.0992918094        4.6252519987
S               -3.1510924841        9.0990471545        1.4899988194
S               -4.7310543687       10.0104969076       10.7339811033
Mo               3.1512517547        1.8193638619       -9.1672481230    0   0   0
Mo               4.7269020221        0.9097289540       -3.0554823951    0   0   0
S                3.1512612351        1.8193882564       -4.6232320683    0   0   0
S                4.7268719268        0.9096773839       -7.6014065489    0   0   0
S                4.7268723805        0.9096785128      -10.7330757790    0   0   0
S                3.1512592485        1.8193890201       -1.4877261251    0   0   0
Mo               3.1514476060        1.8219894574        3.0574082972
Mo               4.7372380921        0.9197600510        9.1742263284
S                3.1571978019        1.8512724206        7.6335342408
S                4.7265017494        0.9123287431        4.6258954911
S                4.7272046495        0.9119161232        1.4900357159
S                3.1560313621        1.7177697591       10.8081548307
[...]
Mo               4.7268792535       10.0065304219       -9.1672481230    0   0   0
Mo               6.3025111524        9.0968738021       -3.0554915260    0   0   0
S                4.7268840634       10.0065452125       -4.6232380477    0   0   0
S                6.3024994256        9.0968439439       -7.6014065489    0   0   0
S                6.3024998793        9.0968450728      -10.7330757790    0   0   0
S                4.7268847312       10.0065459141       -1.4877283294    0   0   0
Mo               4.7268665366       10.0085722344        3.0580634808
Mo               6.3041026244        9.1102822490        9.1606642569
S                4.7276666594       10.0161872893        7.5884025571
S                6.3026230719        9.0991646447        4.6255792023
S                6.3024012755        9.0987854904        1.4902489411
S                4.7369880191       10.0314790216       10.7333786620
Pd               1.5316942494        6.2892536251       12.1628874514
Pd               3.0487209518        3.6629012874       12.1627996326
Pt               2.5047183678        5.0999491070       14.1698582999
End final coordinates

     Writing all to output data dir ./outdir/pwscf.save/ :
     XML data file, charge density, pseudopotentials, collected wavefunctions

     General routines

     Parallel routines

   This run was terminated on:   1:32:54   8Apr2024

   JOB DONE.