     Program PWSCF v.7.2 starts on  4Oct2023 at 23:29:41

     Waiting for input...
     Reading input from standard input
Warning: card &CELL ignored
Warning: card / ignored

     Current dimensions of program PWSCF are:
     Max number of different atomic species (ntypx) = 10
     Max number of k-points (npk) =  40000
     Max angular momentum in pseudopotentials (lmaxx) =  4
     file Mo.pbe-spn-kjpaw_psl.1.0.0.UPF: wavefunction(s)  4S 4D renormalized
     file S.pbe-n-kjpaw_psl.1.0.0.UPF: wavefunction(s)  3S 3P renormalized
     file Pd.pbe-spn-kjpaw_psl.1.0.0.UPF: wavefunction(s)  4S 5S 4D renormalized

     R & G space division:  proc/nbgrp/npool/nimage =      36
     Subspace diagonalization in iterative solution of the eigenvalue problem:
     one sub-group per band group will be used

     Using Slab Decomposition

     bravais-lattice index     =            0
     lattice parameter (alat)  =      23.8395  a.u.
     unit-cell volume          =   28182.8498 (a.u.)^3
     number of atoms/cell      =          146
     number of atomic types    =            3
     number of electrons       =      1284.00
     number of Kohn-Sham states=          770
     kinetic-energy cutoff     =      77.0000  Ry
     charge density cutoff     =     539.0000  Ry
     scf convergence threshold =      1.0E-06
     mixing beta               =       0.2000
     number of iterations used =            8  plain     mixing
     energy convergence thresh.=      1.0E-04
     force convergence thresh. =      1.0E-03
     Exchange-correlation= SLA  PW   PBX  PBC
                           (   1   4   3   4   0   0   0)
     nstep                     =         1000

     Effective Screening Medium Method
     Boundary Conditions: Vacuum-Slab-Vacuum
     total charge in unit cell        =   0.0000
     grid points for fit at edges     =        4

     celldm(1)=  23.839504  celldm(2)=   0.000000  celldm(3)=   0.000000
     celldm(4)=   0.000000  celldm(5)=   0.000000  celldm(6)=   0.000000

     crystal axes: (cart. coord. in units of alat)
               a(1) = (   1.000000   0.000000   0.000000 )
               a(2) = (  -0.500001   0.866026   0.000000 )
               a(3) = (   0.000000   0.000000   2.401941 )

     reciprocal axes: (cart. coord. in units 2 pi/alat)
               b(1) = (  1.000000  0.577351  0.000000 )
               b(2) = (  0.000000  1.154700  0.000000 )
               b(3) = (  0.000000  0.000000  0.416330 )

     PseudoPot. # 1 for Mo read from file:
     ./pseudo/Mo.pbe-spn-kjpaw_psl.1.0.0.UPF
     MD5 check sum: 317bf72632116215fd98f72de1686f13
     Pseudo is Projector augmented-wave + core cor, Zval = 14.0
     Generated using 'atomic' code by A. Dal Corso  v.7.2
     Shape of augmentation charge: PSQ
     Using radial grid of 1229 points,  6 beta functions with:
                l(1) =   0
                l(2) =   0
                l(3) =   1
                l(4) =   1
                l(5) =   2
                l(6) =   2
     Q(r) pseudized with 0 coefficients

     PseudoPot. # 2 for S  read from file:
     ./pseudo/S.pbe-n-kjpaw_psl.1.0.0.UPF
     MD5 check sum: 8b7b5302570d38d5e87fed6a1065abda
     Pseudo is Projector augmented-wave + core cor, Zval =  6.0
     Generated using 'atomic' code by A. Dal Corso  v.7.2
     Shape of augmentation charge: PSQ
     Using radial grid of 1151 points,  6 beta functions with:
                l(1) =   0
                l(2) =   0
                l(3) =   1
                l(4) =   1
                l(5) =   2
                l(6) =   2
     Q(r) pseudized with 0 coefficients

     PseudoPot. # 3 for Pd read from file:
     ./pseudo/Pd.pbe-spn-kjpaw_psl.1.0.0.UPF
     MD5 check sum: a60571a671f2502b8a6a4569d20a6edb
     Pseudo is Projector augmented-wave + core cor, Zval = 18.0
     Generated using 'atomic' code by A. Dal Corso  v.7.2
     Shape of augmentation charge: PSQ
     Using radial grid of 1235 points,  6 beta functions with:
                l(1) =   0
                l(2) =   0
                l(3) =   1
                l(4) =   1
                l(5) =   2
                l(6) =   2
     Q(r) pseudized with 0 coefficients

     atomic species   valence    mass     pseudopotential
        Mo            14.00    95.95000     Mo( 1.00)
        S              6.00    32.06000     S ( 1.00)
        Pd            18.00   106.42000     Pd( 1.00)

     No symmetry found

   Cartesian axes

     site n.     atom                  positions (alat units)
         1           Mo  tau(   1) = (   0.1244805   0.2154429   0.4826124  )
         2           Mo  tau(   2) = (   0.1250004   0.0721694  -0.4825273  )
         3           Mo  tau(   3) = (   0.0000154   0.1443583  -0.0000534  )
         4           S   tau(   4) = (   0.0000004   0.0000006  -0.6064556  )
         5           S   tau(   5) = (   0.1249822   0.0722030  -0.1241916  )
         6           S   tau(   6) = (   0.0001873   0.1444894   0.3573292  )
         7           S   tau(   7) = (   0.0000004   0.0000005  -0.3584711  )
         8           S   tau(   8) = (   0.1250220   0.0721432   0.1241096  )
         9           S   tau(   9) = (  -0.0009222   0.1433430   0.6062350  )
        10           Mo  tau(  10) = (  -0.0011812   0.4330952   0.4826123  )
        11           Mo  tau(  11) = (   0.0000001   0.2886759  -0.4825273  )
        12           Mo  tau(  12) = (  -0.1249761   0.3608493  -0.0000533  )
        13           S   tau(  13) = (  -0.1249999   0.2165071  -0.6064556  )
        14           S   tau(  14) = (   0.0000232   0.2886904  -0.1241345  )
        15           S   tau(  15) = (  -0.1247753   0.3609305   0.3573291  )
        16           S   tau(  16) = (  -0.1249998   0.2165070  -0.3584711  )
        17           S   tau(  17) = (   0.0000901   0.2887289   0.1242236  )
        18           S   tau(  18) = (  -0.1263226   0.3605428   0.6062351  )
        19           Mo  tau(  19) = (  -0.1251400   0.6495983   0.4819363  )
        20           Mo  tau(  20) = (  -0.1250002   0.5051824  -0.4825273  )
        21           Mo  tau(  21) = (  -0.2500026   0.5773383  -0.0001491  )
        22           S   tau(  22) = (  -0.2500002   0.4330136  -0.6064556  )
        23           S   tau(  23) = (  -0.1249812   0.5051509  -0.1241919  )
        24           S   tau(  24) = (  -0.2500015   0.5775831   0.3575295  )
        25           S   tau(  25) = (  -0.2500001   0.4330135  -0.3584711  )
        26           S   tau(  26) = (  -0.1250129   0.5052153   0.1241101  )
        27           S   tau(  27) = (  -0.2500018   0.5771934   0.6060379  )
        28           Mo  tau(  28) = (   0.2499987  -0.0001601   0.4819365  )
        29           Mo  tau(  29) = (  -0.2500004   0.7216889  -0.4825273  )
        30           Mo  tau(  30) = (  -0.3750135   0.7938631  -0.0001491  )
        31           S   tau(  31) = (  -0.3750004   0.6495201  -0.6064556  )
        32           S   tau(  32) = (  -0.2500026   0.7216883  -0.1242347  )
        33           S   tau(  33) = (  -0.3747997   0.7937400   0.3575295  )
        34           S   tau(  34) = (  -0.3750004   0.6495200  -0.3584711  )
        35           S   tau(  35) = (  -0.2500029   0.7216883   0.1240299  )
        36           S   tau(  36) = (  -0.3751376   0.7939346   0.6060379  )
        37           Mo  tau(  37) = (   0.3755166   0.2154425   0.4826119  )
        38           Mo  tau(  38) = (   0.3750004   0.0721694  -0.4825273  )
        39           Mo  tau(  39) = (   0.2499990   0.1443474  -0.0000968  )
        40           S   tau(  40) = (   0.2500004   0.0000006  -0.6064556  )
        41           S   tau(  41) = (   0.3750152   0.0722028  -0.1241921  )
        42           S   tau(  42) = (   0.2499983   0.1443201   0.3580593  )
        43           S   tau(  43) = (   0.2500004   0.0000005  -0.3584711  )
        44           S   tau(  44) = (   0.3749754   0.0721432   0.1241106  )
        45           S   tau(  45) = (   0.2499987   0.1437775   0.6065499  )
        46           Mo  tau(  46) = (   0.2499984   0.4330123   0.4872880  )
        47           Mo  tau(  47) = (   0.2500001   0.2886759  -0.4825273  )
        48           Mo  tau(  48) = (   0.1250277   0.3608616  -0.0000572  )
        49           S   tau(  49) = (   0.1250001   0.2165071  -0.6064556  )
        50           S   tau(  50) = (   0.2499987   0.2886898  -0.1241693  )
        51           S   tau(  51) = (   0.1266397   0.3617911   0.3615924  )
        52           S   tau(  52) = (   0.1250002   0.2165070  -0.3584711  )
        53           S   tau(  53) = (   0.2499988   0.2886671   0.1241958  )
        54           S   tau(  54) = (   0.1173054   0.3564020   0.6108885  )
        55           Mo  tau(  55) = (   0.1243363   0.6504991   0.4826116  )
        56           Mo  tau(  56) = (   0.1249998   0.5051824  -0.4825273  )
        57           Mo  tau(  57) = (   0.0000060   0.5773464  -0.0000969  )
        58           S   tau(  58) = (  -0.0000002   0.4330136  -0.6064556  )
        59           S   tau(  59) = (   0.1250101   0.5051751  -0.1241696  )
        60           S   tau(  60) = (  -0.0000165   0.5773581   0.3580590  )
[...]
       132           S   tau( 132) = (   0.5000130   0.5773585   0.3580587  )
       133           S   tau( 133) = (   0.4999999   0.4330135  -0.3584711  )
       134           S   tau( 134) = (   0.6250081   0.5052147   0.1241104  )
       135           S   tau( 135) = (   0.5004826   0.5776298   0.6065487  )
       136           Mo  tau( 136) = (  -0.0000706   0.0000401   0.4813070  )
       137           Mo  tau( 137) = (   0.4999996   0.7216889  -0.4825273  )
       138           Mo  tau( 138) = (   0.3749881   0.7938314  -0.0000535  )
       139           S   tau( 139) = (   0.3749996   0.6495201  -0.6064556  )
       140           S   tau( 140) = (   0.4999594   0.7216844  -0.1241918  )
       141           S   tau( 141) = (   0.3749610   0.7936184   0.3573285  )
       142           S   tau( 142) = (   0.3749996   0.6495200  -0.3584711  )
       143           S   tau( 143) = (   0.5000310   0.7216802   0.1241101  )
       144           S   tau( 144) = (   0.3753979   0.7951517   0.6062337  )
       145           Pd  tau( 145) = (   0.2499985   0.4330123   0.7148096  )
       146           Pd  tau( 146) = (  -0.0031707   0.4315123   0.7268146  )

     DFT-D3 Dispersion Correction (3-body terms):
       Reference C6 values for interpolation:

         atom   Coordination number   C6
         S          0.000           268.01
         S          0.995           261.99
         S          1.990           251.62
         Mo         0.000          1691.79
         Mo         1.942          1004.01
         Mo        11.056           674.22
         Pd         0.000          1217.01
         Pd         1.863           573.90
         Pd         5.710           531.75

       Values used:

         atom   Coordination number  R0_AB[au]  C6      C8
         Mo        10.181            3.547    674.22  77634.20
         Mo        10.189            3.547    674.22  77634.20
         Mo        10.201            3.547    674.22  77634.20
         S          3.753            3.128    251.62  12327.25
[...]
     atom   13 type  2   force =     0.00000000    0.00000000    0.00000000
     atom   14 type  2   force =     0.00000453    0.00000702   -0.00000637
     atom   15 type  2   force =     0.00000960    0.00000147    0.00000220
     atom   16 type  2   force =     0.00000000    0.00000000    0.00000000
     atom   17 type  2   force =     0.00000020    0.00000182   -0.00000955
     atom   18 type  2   force =    -0.00000042    0.00000974    0.00000145
     atom   19 type  1   force =    -0.00000915    0.00002640   -0.00000884
     atom   20 type  1   force =     0.00000000    0.00000000    0.00000000
     atom   21 type  1   force =     0.00001509   -0.00000091   -0.00003064
     atom   22 type  2   force =     0.00000000    0.00000000    0.00000000
     atom   23 type  2   force =     0.00000617    0.00000291   -0.00000181
     atom   24 type  2   force =     0.00000609    0.00000239   -0.00000944
     atom   25 type  2   force =     0.00000000    0.00000000    0.00000000
     atom   26 type  2   force =     0.00000559    0.00000250   -0.00001205
     atom   27 type  2   force =     0.00000434    0.00001184    0.00000159
     atom   28 type  1   force =     0.00002785   -0.00000040    0.00002209
     atom   29 type  1   force =     0.00000000    0.00000000    0.00000000
     atom   30 type  1   force =    -0.00000622   -0.00000394   -0.00003110
     atom   31 type  2   force =     0.00000000    0.00000000    0.00000000
     atom   32 type  2   force =    -0.00000095    0.00000098   -0.00000697
     atom   33 type  2   force =     0.00000701    0.00000199   -0.00000331
     atom   34 type  2   force =     0.00000000    0.00000000    0.00000000
     atom   35 type  2   force =     0.00000203    0.00000253   -0.00000585
     atom   36 type  2   force =    -0.00000173   -0.00000085    0.00000349
     atom   37 type  1   force =    -0.00001449   -0.00000146    0.00003020
     atom   38 type  1   force =     0.00000000    0.00000000    0.00000000
     atom   39 type  1   force =    -0.00000097    0.00000213   -0.00003503
     atom   40 type  2   force =     0.00000000    0.00000000    0.00000000
     atom   41 type  2   force =    -0.00000323   -0.00000241   -0.00001122
     atom   42 type  2   force =     0.00000184    0.00000194    0.00000472
     atom   43 type  2   force =     0.00000000    0.00000000    0.00000000
     atom   44 type  2   force =    -0.00000694   -0.00000627   -0.00001279
     atom   45 type  2   force =     0.00001392   -0.00000661   -0.00000128
     atom   46 type  1   force =     0.00002041   -0.00002119   -0.00003368
     atom   47 type  1   force =     0.00000000    0.00000000    0.00000000
     atom   48 type  1   force =    -0.00000704    0.00001036   -0.00003802
     atom   49 type  2   force =     0.00000000    0.00000000    0.00000000
     atom   50 type  2   force =    -0.00000541    0.00000533   -0.00000767
     atom   51 type  2   force =     0.00000048    0.00001104   -0.00000492
     atom   52 type  2   force =     0.00000000    0.00000000    0.00000000
     atom   53 type  2   force =    -0.00000713    0.00000261   -0.00000865
     atom   54 type  2   force =     0.00001146   -0.00001450   -0.00002121
     atom   55 type  1   force =     0.00001062   -0.00000342    0.00000134
     atom   56 type  1   force =     0.00000000    0.00000000    0.00000000
     atom   57 type  1   force =     0.00000304   -0.00000501   -0.00003210
     atom   58 type  2   force =     0.00000000    0.00000000    0.00000000
     atom   59 type  2   force =    -0.00000213    0.00000226    0.00000158
     atom   60 type  2   force =    -0.00000046   -0.00001476    0.00000422
[...]
     atom  132 type  2   force =     0.00000217    0.00000325   -0.00000852
     atom  133 type  2   force =     0.00000000    0.00000000    0.00000000
     atom  134 type  2   force =     0.00000421    0.00000216   -0.00001084
     atom  135 type  2   force =    -0.00000965    0.00001119    0.00001674
     atom  136 type  1   force =    -0.00001504   -0.00002301    0.00002433
     atom  137 type  1   force =     0.00000000    0.00000000    0.00000000
     atom  138 type  1   force =     0.00000894   -0.00001072   -0.00003048
     atom  139 type  2   force =     0.00000000    0.00000000    0.00000000
     atom  140 type  2   force =    -0.00000130   -0.00000183   -0.00000347
     atom  141 type  2   force =     0.00000221    0.00000867   -0.00000564
     atom  142 type  2   force =     0.00000000    0.00000000    0.00000000
     atom  143 type  2   force =     0.00000279    0.00000291   -0.00001086
     atom  144 type  2   force =     0.00000528   -0.00000340    0.00000693
     atom  145 type  3   force =     0.00016608   -0.00000837    0.00003220
     atom  146 type  3   force =    -0.00011245    0.00008214    0.00009719

     DFT-D3 dispersion contribution to forces:
     atom    1 type  1   force =     0.00000044    0.00056034   -0.00186435
     atom    2 type  1   force =     0.00000023   -0.00000033    0.00260482
     atom    3 type  1   force =    -0.00000437   -0.00001939   -0.00002580
     atom    4 type  2   force =     0.00000001   -0.00000007    0.00441112
     atom    5 type  2   force =     0.00000048   -0.00000238   -0.00004596
     atom    6 type  2   force =     0.00001973    0.00003827   -0.00005737
     atom    7 type  2   force =     0.00000050   -0.00000050    0.00023642
     atom    8 type  2   force =    -0.00000061   -0.00003349    0.00009734
     atom    9 type  2   force =     0.00017845    0.00074863   -0.00408160
     atom   10 type  1   force =     0.00032800    0.00000776   -0.00215151
     atom   11 type  1   force =     0.00000025    0.00000017    0.00260432
     atom   12 type  1   force =    -0.00001418   -0.00000866   -0.00004983
     atom   13 type  2   force =     0.00000000   -0.00000000    0.00441088
     atom   14 type  2   force =     0.00000044   -0.00000092   -0.00005327
     atom   15 type  2   force =     0.00006487    0.00001260    0.00017357
     atom   16 type  2   force =     0.00000040    0.00000024    0.00023643
     atom   17 type  2   force =    -0.00000904   -0.00002653    0.00008876
     atom   18 type  2   force =     0.00042354    0.00014033   -0.00430718
     atom   19 type  1   force =     0.00026326   -0.00033571   -0.00216375
     atom   20 type  1   force =    -0.00000005    0.00000039    0.00260480
     atom   21 type  1   force =    -0.00000953    0.00000914   -0.00002801
     atom   22 type  2   force =    -0.00000004   -0.00000001    0.00441097
     atom   23 type  2   force =    -0.00000126    0.00000251   -0.00005245
     atom   24 type  2   force =     0.00002427    0.00000139   -0.00010848
     atom   25 type  2   force =    -0.00000006    0.00000077    0.00023642
     atom   26 type  2   force =    -0.00002693    0.00001563    0.00008279
     atom   27 type  2   force =     0.00046619   -0.00028880   -0.00417621
     atom   28 type  1   force =     0.00000688    0.00011253   -0.00246683
     atom   29 type  1   force =    -0.00000008   -0.00000003    0.00260531
     atom   30 type  1   force =    -0.00000011    0.00000288   -0.00000360
     atom   31 type  2   force =     0.00000000    0.00000006    0.00441126
     atom   32 type  2   force =    -0.00000072   -0.00000000   -0.00004578
     atom   33 type  2   force =    -0.00000086    0.00000203   -0.00019191
     atom   34 type  2   force =     0.00000001    0.00000002    0.00023655
     atom   35 type  2   force =    -0.00001315    0.00001592    0.00010140
     atom   36 type  2   force =    -0.00000081    0.00001662   -0.00437621
     atom   37 type  1   force =    -0.00025565    0.00033182   -0.00216446
     atom   38 type  1   force =    -0.00000028   -0.00000029    0.00260467
     atom   39 type  1   force =     0.00000383   -0.00001942   -0.00002743
     atom   40 type  2   force =     0.00000001   -0.00000006    0.00441120
     atom   41 type  2   force =    -0.00000115   -0.00000158   -0.00004617
     atom   42 type  2   force =    -0.00002148    0.00003683   -0.00005698
     atom   43 type  2   force =    -0.00000030   -0.00000041    0.00023639
     atom   44 type  2   force =     0.00000264   -0.00001982    0.00009707
     atom   45 type  2   force =    -0.00017388    0.00074994   -0.00408309
     atom   46 type  1   force =    -0.00032637    0.00000908   -0.00215032
     atom   47 type  1   force =    -0.00000001    0.00000006    0.00260466
     atom   48 type  1   force =    -0.00000044   -0.00001253   -0.00007472
     atom   49 type  2   force =     0.00000001   -0.00000001    0.00441091
     atom   50 type  2   force =     0.00000013   -0.00000137   -0.00005345
     atom   51 type  2   force =    -0.00000061    0.00005440    0.00046849
     atom   52 type  2   force =     0.00000029    0.00000011    0.00023644
     atom   53 type  2   force =     0.00000734   -0.00002601    0.00008846
     atom   54 type  2   force =     0.00000350    0.00021099   -0.00430974
     atom   55 type  1   force =     0.00000123   -0.00057758   -0.00188159
     atom   56 type  1   force =     0.00000003    0.00000010    0.00260483
     atom   57 type  1   force =    -0.00000988    0.00001619   -0.00006067
     atom   58 type  2   force =     0.00000000   -0.00000001    0.00441082
     atom   59 type  2   force =    -0.00000013    0.00000128   -0.00005694
     atom   60 type  2   force =     0.00003868   -0.00007497    0.00023521
[...]
     atom  132 type  2   force =    -0.00002377    0.00000024   -0.00010778
     atom  133 type  2   force =    -0.00000025    0.00000069    0.00023624
     atom  134 type  2   force =     0.00000036    0.00001726    0.00008903
     atom  135 type  2   force =    -0.00046786   -0.00029027   -0.00417806
     atom  136 type  1   force =    -0.00000623    0.00011112   -0.00246724
     atom  137 type  1   force =     0.00000027   -0.00000018    0.00260505
     atom  138 type  1   force =     0.00000464    0.00001022   -0.00001206
     atom  139 type  2   force =     0.00000005    0.00000004    0.00441108
     atom  140 type  2   force =     0.00000135   -0.00000023   -0.00004591
     atom  141 type  2   force =     0.00000412    0.00000844   -0.00014555
     atom  142 type  2   force =     0.00000008   -0.00000029    0.00023660
     atom  143 type  2   force =     0.00001316    0.00001676    0.00010203
     atom  144 type  2   force =    -0.00011817   -0.00025481   -0.00429868
     atom  145 type  3   force =    -0.00014370    0.00001085   -0.00626153
     atom  146 type  3   force =     0.00014441    0.00001058   -0.00625954

     Total force =     0.002763     Total SCF correction =     0.000372
     SCF correction compared to forces is large: reduce conv_thr to get better values
     Energy error            =      1.8E-05 Ry
     Gradient error          =      8.7E-04 Ry/Bohr

     bfgs converged in  18 scf cycles and  17 bfgs steps
     (criteria: energy <  1.0E-04 Ry, force <  1.0E-03 Ry/Bohr)

     End of BFGS Geometry Optimization

     Final energy             =  -24869.1297789429 Ry

     File ./outdir/pwscf.bfgs deleted, as requested
Begin final coordinates

ATOMIC_POSITIONS (angstrom)
Mo            1.5751807302        2.6886802179        6.0689578203
Mo            1.5769197498        0.9104407117       -6.0872367793    0   0   0
Mo           -0.0000057474        1.8210543642       -0.0006182626
S             0.0000044503        0.0000077495       -7.6506323570    0   0   0
S             1.5766739489        0.9112358648       -1.5669272927
S            -0.0102070258        1.8139868748        4.4967298735
S             0.0000053241        0.0000068460       -4.5222282367    0   0   0
S             1.5772503585        0.9099050141        1.5653807963
S            -0.0074966478        1.7974759998        7.6383727763
Mo           -0.0140020140        5.4608329061        6.1395451399
Mo            0.0000011799        3.6417399547       -6.0872367793    0   0   0
Mo           -1.5765491675        4.5523971042       -0.0001925515
S            -1.5769141197        2.7313069925       -7.6506323570    0   0   0
S             0.0000107656        3.6419287702       -1.5657624941
S            -1.5603689258        4.5647865519        4.5493223634
S            -1.5769132459        2.7313060890       -4.5222282367    0   0   0
S             0.0006691316        3.6421600220        1.5676274339
S            -1.6604907533        4.5076186614        7.7072304903
Mo           -1.5862515822        8.2053187021        6.0817541660
Mo           -1.5769173901        6.3730391977       -6.0872367793    0   0   0
Mo           -3.1537774655        7.2832712355       -0.0021627358
S            -3.1538326896        5.4626062355       -7.6506323570    0   0   0
S            -1.5765608147        6.3723914298       -1.5667366280
S            -3.1540379050        7.2798926033        4.5113005526
S            -3.1538318159        5.4626053320       -4.5222282367    0   0   0
S            -1.5770415135        6.3736972608        1.5662108983
S            -3.1584924252        7.2873467791        7.6467951596
Mo            3.1565681948       -0.0049874042        6.0634428493
Mo           -3.1538359601        9.1043384407       -6.0872367793    0   0   0
Mo           -4.7307176423       10.0148510937       -0.0025746074
S            -4.7307512596        8.1939054785       -7.6506323570    0   0   0
S            -3.1536911951        9.1041688007       -1.5678363212
S            -4.7304179540       10.0074183809        4.4993632271
S            -4.7307503859        8.1939045750       -4.5222282367    0   0   0
S            -3.1539432595        9.1041985039        1.5642390379
S            -4.7307432875       10.0155233141        7.6339212498
Mo            4.7352973334        2.7220130623        6.0838698329
Mo            4.7307503218        0.9104407117       -6.0872367793    0   0   0
Mo            3.1537801078        1.8211618584       -0.0012652497
S             3.1538350223        0.0000077495       -7.6506323570    0   0   0
S             4.7307670672        0.9107116240       -1.5671713780
S             3.1627684185        1.8165161553        4.4983625825
S             3.1538358961        0.0000068460       -4.5222282367    0   0   0
S             4.7308782156        0.9097575106        1.5644735201
S             3.1576650152        1.7979162748        7.6397085696
Mo            3.1642945504        5.4604877397        6.1396594134
Mo            3.1538317519        3.6417399547       -6.0872367793    0   0   0
Mo            1.5768485367        4.5524808789       -0.0004326942
S             1.5769164523        2.7313069925       -7.6506323570    0   0   0
S             3.1534630099        3.6421769604       -1.5662117400
S             1.5749909038        4.5676230294        4.5820355297
S             1.5769173261        2.7313060890       -4.5222282367    0   0   0
S             3.1531500286        3.6421080904        1.5672817721
S             1.5746654033        4.4187734354        7.6978848049
Mo            1.5760320570        8.2189658373        6.0906951727
Mo            1.5769131819        6.3730391977       -6.0872367793    0   0   0
Mo            0.0001633393        7.2829927332       -0.0012526804
S            -0.0000021176        5.4626062355       -7.6506323570    0   0   0
S             1.5769735679        6.3727256876       -1.5665594308
S             0.0012506893        7.2645930096        4.5542196380
[...]
S             6.3054591941        7.2801545516        4.5123484000
S             6.3076599001        5.4626053320       -4.5222282367    0   0   0
S             7.8845519600        6.3738966142        1.5652286916
S             6.3115989787        7.2877477126        7.6480008950
Mo           -0.0035389633       -0.0060851879        6.0630450374
Mo            6.3076557559        9.1043384407       -6.0872367793    0   0   0
Mo            4.7304381658       10.0144322425       -0.0014615568
S             4.7307404564        8.1939054785       -7.6506323570    0   0   0
S             6.3071922264        9.1043068565       -1.5674705185
S             4.7274121372       10.0066805440        4.4994047227
S             4.7307413301        8.1939045750       -4.5222282367    0   0   0
S             6.3080996959        9.1040443967        1.5644808079
S             4.7331784253       10.0287261288        7.6406773099
Pd            3.0887476942        5.4858349627        9.0490060561
Pd            0.0703418671        5.4919346376        9.0487589820
End final coordinates

     Writing all to output data dir ./outdir/pwscf.save/

     General routines

     Parallel routines

   This run was terminated on:  23: 8: 9   5Oct2023

   JOB DONE.
Application 11268004 resources: utime ~3025789s, stime ~37886s, Rss ~2363492, inblocks ~0, outblocks ~37385800