     Program PWSCF v.7.3 starts on 30Mar2024 at 15:42:39

     Waiting for input...
     Reading input from standard input
Warning: card &CELL ignored
Warning: card / ignored

     Current dimensions of program PWSCF are:
     Max number of different atomic species (ntypx) = 10
     Max number of k-points (npk) =  40000
     Max angular momentum in pseudopotentials (lmaxx) =  4
     file Mo.pbe-spn-kjpaw_psl.1.0.0.UPF: wavefunction(s)  4S 4D renormalized
     file S.pbe-n-kjpaw_psl.1.0.0.UPF: wavefunction(s)  3S 3P renormalized
     file Pt.pbe-spfn-kjpaw_psl.1.0.0.UPF: wavefunction(s)  5P 4F renormalized
     file Pd.pbe-spn-kjpaw_psl.1.0.0.UPF: wavefunction(s)  4S 5S 4D renormalized

     R & G space division:  proc/nbgrp/npool/nimage =      36
     Subspace diagonalization in iterative solution of the eigenvalue problem:
     one sub-group per band group will be used

     Using Slab Decomposition

     bravais-lattice index     =            0
     lattice parameter (alat)  =      23.8395  a.u.
     unit-cell volume          =   28182.8498 (a.u.)^3
     number of atoms/cell      =          147
     number of atomic types    =            4
     number of electrons       =      1330.00
     number of Kohn-Sham states=          798
     kinetic-energy cutoff     =      77.0000  Ry
     charge density cutoff     =     539.0000  Ry
     scf convergence threshold =      1.0E-06
     mixing beta               =       0.2000
     number of iterations used =            8  plain     mixing
     energy convergence thresh.=      1.0E-04
     force convergence thresh. =      1.0E-03
     Exchange-correlation= SLA  PW   PBX  PBC
                           (   1   4   3   4   0   0   0)
     nstep                     =         1000

     Effective Screening Medium Method
     Boundary Conditions: Vacuum-Slab-Vacuum
     total charge in unit cell        =   0.0000
     grid points for fit at edges     =        4

     celldm(1)=  23.839504  celldm(2)=   0.000000  celldm(3)=   0.000000
     celldm(4)=   0.000000  celldm(5)=   0.000000  celldm(6)=   0.000000

     crystal axes: (cart. coord. in units of alat)
               a(1) = (   1.000000   0.000000   0.000000 )
               a(2) = (  -0.500001   0.866026   0.000000 )
               a(3) = (   0.000000   0.000000   2.401941 )

     reciprocal axes: (cart. coord. in units 2 pi/alat)
               b(1) = (  1.000000  0.577351  0.000000 )
               b(2) = (  0.000000  1.154700  0.000000 )
               b(3) = (  0.000000  0.000000  0.416330 )

     PseudoPot. # 1 for Mo read from file:
     ./pseudo/Mo.pbe-spn-kjpaw_psl.1.0.0.UPF
     MD5 check sum: 317bf72632116215fd98f72de1686f13
     Pseudo is Projector augmented-wave + core cor, Zval = 14.0
     Generated using 'atomic' code by A. Dal Corso  v.7.2
     Shape of augmentation charge: PSQ
     Using radial grid of 1229 points,  6 beta functions with:
                l(1) =   0
                l(2) =   0
                l(3) =   1
                l(4) =   1
                l(5) =   2
                l(6) =   2
     Q(r) pseudized with 0 coefficients

     PseudoPot. # 2 for S  read from file:
     ./pseudo/S.pbe-n-kjpaw_psl.1.0.0.UPF
     MD5 check sum: 8b7b5302570d38d5e87fed6a1065abda
     Pseudo is Projector augmented-wave + core cor, Zval =  6.0
     Generated using 'atomic' code by A. Dal Corso  v.7.2
     Shape of augmentation charge: PSQ
     Using radial grid of 1151 points,  6 beta functions with:
                l(1) =   0
                l(2) =   0
                l(3) =   1
                l(4) =   1
                l(5) =   2
                l(6) =   2
     Q(r) pseudized with 0 coefficients

     PseudoPot. # 3 for Pt read from file:
     ./pseudo/Pt.pbe-spfn-kjpaw_psl.1.0.0.UPF
     MD5 check sum: 620096ebf4e6ebacc94de60fd67efcb5
     Pseudo is Projector augmented-wave + core cor, Zval = 32.0
     Generated using 'atomic' code by A. Dal Corso  v.7.2
     Shape of augmentation charge: PSQ
     Using radial grid of 1277 points,  8 beta functions with:
                l(1) =   0
                l(2) =   0
                l(3) =   1
                l(4) =   1
                l(5) =   2
                l(6) =   2
                l(7) =   3
                l(8) =   3
     Q(r) pseudized with 0 coefficients

     PseudoPot. # 4 for Pd read from file:
     ./pseudo/Pd.pbe-spn-kjpaw_psl.1.0.0.UPF
     MD5 check sum: a60571a671f2502b8a6a4569d20a6edb
     Pseudo is Projector augmented-wave + core cor, Zval = 18.0
     Generated using 'atomic' code by A. Dal Corso  v.7.2
     Shape of augmentation charge: PSQ
     Using radial grid of 1235 points,  6 beta functions with:
                l(1) =   0
                l(2) =   0
                l(3) =   1
                l(4) =   1
                l(5) =   2
                l(6) =   2
     Q(r) pseudized with 0 coefficients

     atomic species   valence    mass     pseudopotential
     Mo               14.00    95.95000     Mo( 1.00)
     S                 6.00    32.06000     S ( 1.00)
     Pt               32.00   195.08400     Pt( 1.00)
     Pd               18.00   106.42000     Pd( 1.00)

     No symmetry found

   Cartesian axes

     site n.     atom                  positions (alat units)
         1        Mo     tau(   1) = (   0.1246074   0.2157200   0.4826345  )
         2        Mo     tau(   2) = (   0.1250004   0.0721694  -0.4825273  )
         3        Mo     tau(   3) = (   0.0000068   0.1443549  -0.0000406  )
         4        S      tau(   4) = (   0.0000004   0.0000006  -0.6064556  )
         5        S      tau(   5) = (   0.1249873   0.0722031  -0.1241756  )
         6        S      tau(   6) = (   0.0000973   0.1450650   0.3573519  )
         7        S      tau(   7) = (   0.0000004   0.0000005  -0.3584711  )
         8        S      tau(   8) = (   0.1249847   0.0720950   0.1240801  )
         9        S      tau(   9) = (  -0.0005301   0.1434694   0.6062599  )
        10        Mo     tau(  10) = (  -0.0009156   0.4330317   0.4832560  )
        11        Mo     tau(  11) = (   0.0000001   0.2886759  -0.4825273  )
        12        Mo     tau(  12) = (  -0.1249829   0.3608507   0.0000027  )
        13        S      tau(  13) = (  -0.1249999   0.2165071  -0.6064556  )
        14        S      tau(  14) = (   0.0000128   0.2886930  -0.1241006  )
        15        S      tau(  15) = (  -0.1248837   0.3612581   0.3580377  )
        16        S      tau(  16) = (  -0.1249998   0.2165070  -0.3584711  )
        17        S      tau(  17) = (   0.0000764   0.2887257   0.1242499  )
        18        S      tau(  18) = (  -0.1253220   0.3603286   0.6073134  )
        19        Mo     tau(  19) = (  -0.1249684   0.6493789   0.4818062  )
        20        Mo     tau(  20) = (  -0.1250002   0.5051824  -0.4825273  )
        21        Mo     tau(  21) = (  -0.2500040   0.5773207  -0.0001409  )
        22        S      tau(  22) = (  -0.2500002   0.4330136  -0.6064556  )
        23        S      tau(  23) = (  -0.1249903   0.5051158  -0.1241917  )
        24        S      tau(  24) = (  -0.2499555   0.5769406   0.3578597  )
        25        S      tau(  25) = (  -0.2500001   0.4330135  -0.3584711  )
        26        S      tau(  26) = (  -0.1249930   0.5052458   0.1241101  )
        27        S      tau(  27) = (  -0.2497899   0.5778453   0.6063597  )
        28        Mo     tau(  28) = (   0.2497834  -0.0005160   0.4806710  )
        29        Mo     tau(  29) = (  -0.2500004   0.7216889  -0.4825273  )
        30        Mo     tau(  30) = (  -0.3750188   0.7938286  -0.0001549  )
        31        S      tau(  31) = (  -0.3750004   0.6495201  -0.6064556  )
        32        S      tau(  32) = (  -0.2500074   0.7216649  -0.1242513  )
        33        S      tau(  33) = (  -0.3752234   0.7935039   0.3566636  )
        34        S      tau(  34) = (  -0.3750004   0.6495200  -0.3584711  )
        35        S      tau(  35) = (  -0.2499996   0.7216607   0.1240200  )
        36        S      tau(  36) = (  -0.3746819   0.7948899   0.6057341  )
        37        Mo     tau(  37) = (   0.3750034   0.2123618   0.4807886  )
        38        Mo     tau(  38) = (   0.3750004   0.0721694  -0.4825273  )
        39        Mo     tau(  39) = (   0.2499981   0.1443415  -0.0000413  )
        40        S      tau(  40) = (   0.2500004   0.0000006  -0.6064556  )
        41        S      tau(  41) = (   0.3750280   0.0722231  -0.1241519  )
        42        S      tau(  42) = (   0.2489233   0.1437373   0.3564531  )
        43        S      tau(  43) = (   0.2500004   0.0000005  -0.3584711  )
        44        S      tau(  44) = (   0.3749877   0.0720947   0.1241383  )
        45        S      tau(  45) = (   0.2497122   0.1423104   0.6055821  )
        46        Mo     tau(  46) = (   0.2490774   0.4329018   0.4862977  )
        47        Mo     tau(  47) = (   0.2500001   0.2886759  -0.4825273  )
        48        Mo     tau(  48) = (   0.1250319   0.3608540  -0.0000126  )
        49        S      tau(  49) = (   0.1250001   0.2165071  -0.6064556  )
        50        S      tau(  50) = (   0.2500259   0.2886851  -0.1240979  )
        51        S      tau(  51) = (   0.1263042   0.3620125   0.3614359  )
        52        S      tau(  52) = (   0.1250002   0.2165070  -0.3584711  )
        53        S      tau(  53) = (   0.2500168   0.2886898   0.1242904  )
        54        S      tau(  54) = (   0.1173694   0.3566575   0.6132890  )
        55        Mo     tau(  55) = (   0.1240062   0.6506471   0.4823696  )
        56        Mo     tau(  56) = (   0.1249998   0.5051824  -0.4825273  )
        57        Mo     tau(  57) = (   0.0000191   0.5773226  -0.0001255  )
        58        S      tau(  58) = (  -0.0000002   0.4330136  -0.6064556  )
        59        S      tau(  59) = (   0.1250359   0.5051398  -0.1241676  )
        60        S      tau(  60) = (   0.0000697   0.5768181   0.3580317  )
[...]
       133        S      tau( 133) = (   0.4999999   0.4330135  -0.3584711  )
       134        S      tau( 134) = (   0.6250095   0.5052263   0.1241915  )
       135        S      tau( 135) = (   0.5006407   0.5846211   0.6091832  )
       136        Mo     tau( 136) = (   0.0000410   0.0004185   0.4809769  )
       137        Mo     tau( 137) = (   0.4999996   0.7216889  -0.4825273  )
       138        Mo     tau( 138) = (   0.3750036   0.7938273  -0.0000272  )
       139        S      tau( 139) = (   0.3749996   0.6495201  -0.6064556  )
       140        S      tau( 140) = (   0.4999499   0.7216482  -0.1241729  )
       141        S      tau( 141) = (   0.3750006   0.7941054   0.3569117  )
       142        S      tau( 142) = (   0.3749996   0.6495200  -0.3584711  )
       143        S      tau( 143) = (   0.5000314   0.7216102   0.1241515  )
       144        S      tau( 144) = (   0.3752329   0.7966920   0.6062052  )
       145        Pt     tau( 145) = (   0.2580795   0.4348292   0.7095693  )
       146        Pd     tau( 146) = (   0.4899479   0.4358638   0.7204770  )
       147        Pt     tau( 147) = (  -0.0009512   0.4330448   0.7322048  )

     DFT-D3 Dispersion Correction (3-body terms):
       Reference C6 values for interpolation:

[...]
   -40.6667 -40.6648 -40.6641 -40.6576 -40.6553 -40.6547 -40.6396 -40.6382
   -40.6381 -40.6345 -40.6334 -40.6262 -40.6080 -40.6075 -40.6006 -40.5965
   -40.5897 -40.5849 -40.5769 -40.5665 -40.5626 -40.5526 -40.5301 -40.5226
   -40.5092 -40.4994 -20.2266 -19.9482 -19.9274 -19.8808 -19.7739 -19.7435
   -19.5912 -19.5219 -19.4915 -19.4689 -19.3484 -19.3287 -19.2220 -19.0827
   -18.8717 -18.8119 -18.8093 -18.8023 -18.7911 -18.7890 -18.7776 -18.7668
   -18.7292 -18.6830 -18.6774 -18.6643 -18.6572 -18.6522 -18.6148 -18.6087
   -18.5722 -18.5458 -18.5429 -18.5154 -18.5082 -18.4919 -18.4685 -18.4575
   -18.4368 -18.4145 -18.3914 -18.3561 -18.3417 -18.3059 -18.3026 -18.2866
   -18.2538 -18.2439 -18.2258 -18.2124 -18.1970 -18.1809 -18.1808 -18.1807
   -18.1807 -18.1653 -18.1539 -18.1449 -18.1191 -18.1100 -18.1053 -18.1012
   -18.0985 -18.0960 -18.0930 -18.0646 -18.0563 -18.0503 -18.0389 -18.0341
   -18.0071 -18.0009 -17.9969 -17.9958 -17.9906 -17.9826 -17.9425 -17.9383
   -17.9346 -17.9231 -17.9174 -17.9174 -17.8852 -17.8772 -17.8658 -17.8577
   -17.8576 -17.8508 -17.8427 -17.8413 -17.8389 -17.8364 -17.7986 -17.7978
   -17.7438 -17.7378 -12.2907 -12.2595 -11.8550 -11.7978 -11.7576 -11.7047
   -11.6460 -11.5546 -11.5281 -11.5258 -11.5244 -11.5214 -11.5080 -11.4976
   -11.4735 -11.4420 -11.4308 -11.4269 -11.4222 -11.4054 -11.3962 -11.3730
   -11.3577 -11.3429 -11.3349 -11.3103 -11.3103 -11.3012 -11.2698 -11.2646
   -11.2636 -11.2186 -11.2139 -11.2126 -11.2086 -11.1540 -11.1352 -11.1126
   -11.1009 -11.0714 -11.0442 -11.0267 -11.0139 -10.9973 -10.9895 -10.9670
   -10.9645 -10.9602 -10.9515 -10.9256 -10.9091 -10.9008 -10.8960 -10.8857
   -10.8837 -10.8830 -10.8822 -10.8784 -10.8712 -10.8648 -10.8235 -10.8189
   -10.8153 -10.8106 -10.7648 -10.6939 -10.6570 -10.6287 -10.5676 -10.5568
   -10.5304 -10.5039 -10.5010 -10.4419 -10.3869 -10.3451 -10.2340 -10.2116
   -10.1789 -10.1732 -10.1603 -10.1533 -10.1116 -10.0849 -10.0794 -10.0626
   -10.0215 -10.0145 -10.0062  -9.9932  -9.9822  -9.9804  -9.9785  -9.9570
    -9.9528  -9.9379  -9.9328  -9.9101  -9.8804  -9.8556  -9.8327  -9.8269
    -9.8168  -9.8033  -9.7963  -9.7748  -9.7703  -9.7557  -9.7529  -9.7512
    -9.7425  -9.7274  -9.7144  -9.7068  -9.6816  -9.6712  -9.6685  -9.6182
    -9.6163  -9.6115  -9.5951  -9.5866  -9.5803  -9.5481  -9.5300  -9.5243
    -9.5202  -9.4712  -9.4516  -9.4086  -9.3895  -9.3445  -9.2819  -9.2690
    -9.2516  -9.2422  -9.2378  -9.2194  -9.2059  -9.1931  -9.1703  -9.1635
    -9.1586  -9.1553  -9.1481  -9.1101  -9.1026  -9.1008  -9.0861  -9.0758
    -9.0690  -9.0530  -9.0415  -9.0350  -9.0194  -9.0157  -9.0012  -8.9986
    -8.9934  -8.9890  -8.9804  -8.9675  -8.9491  -8.9388  -8.9315  -8.9128
[...]
    -3.8167  -3.7818  -3.7531  -3.6773  -3.6763  -3.6579  -3.6500  -3.6486
    -3.6426  -3.6327  -3.6325  -3.6283  -3.6137  -3.5787  -3.5692  -3.5551
    -3.5512  -3.5403  -3.5320  -3.5290  -3.5254  -3.5197  -3.5136  -3.4743
    -3.4530  -3.4490  -3.4385  -3.4148  -3.4118  -3.4024  -3.4012  -3.3968
    -3.3792  -3.3681  -3.3637  -3.3627  -3.3535  -3.3497  -3.3271  -3.3240
    -3.3228  -3.3225  -3.3171  -3.2936  -3.2899  -3.2845  -3.2780  -3.2635
    -3.2583  -3.2522  -3.2457  -3.2391  -3.2332  -3.2101  -3.2028  -3.1889
    -3.1634  -3.1488  -3.1357  -3.1194  -3.1183  -3.1030  -3.0999  -3.0791
    -3.0775  -3.0609  -3.0607  -3.0605  -3.0599  -3.0251  -3.0210  -3.0126
    -3.0113  -2.9944  -2.9910  -2.9829  -2.9757  -2.9712  -2.9685  -2.9618
    -2.9548  -2.9481  -2.9434  -2.9410  -2.9302  -2.9113  -2.8948  -2.8895
    -2.8770  -2.8719  -2.8578  -2.8560  -2.8402  -2.8013  -2.7991  -2.7645
    -2.7639  -2.7252  -2.7206  -2.7069  -2.6977  -2.6959  -2.6844  -2.6210
    -2.6156  -2.5905  -2.5776  -2.5618  -2.5541  -2.5399  -2.5335  -2.4757
    -2.4454  -2.4354  -2.3927  -2.3688  -2.3598  -2.3200

     the Fermi energy is    -4.7597 ev

!    total energy              =  -27706.45049295 Ry
     total all-electron energy =   -549111.712932 Ry
     estimated scf accuracy    <          7.8E-09 Ry
     smearing contrib. (-TS)   =      -0.00000149 Ry
     internal energy E=F+TS    =  -27706.45049146 Ry

     The total energy is F=E-TS. E is the sum of the following terms:
     one-electron contribution =  525099.46556573 Ry
     hartree contribution      = -262733.35037974 Ry
     xc contribution           =   -1610.33209081 Ry
     ewald contribution        = -271678.49342765 Ry
     DFT-D3 Dispersion         =      -4.06315414 Ry
     one-center paw contrib.   =  -16779.67700485 Ry

     convergence has been achieved in  10 iterations

     negative rho (up, down):  9.144E-04 0.000E+00

     Forces acting on atoms (cartesian axes, Ry/au):

     atom    1 type  1   force =     0.00000786    0.00010586    0.00008542
     atom    2 type  1   force =    -0.00000232    0.00000112    0.00190018
     atom    3 type  1   force =     0.00000749    0.00000224    0.00001114
     atom    4 type  2   force =    -0.00000300    0.00000002   -0.00328062
     atom    5 type  2   force =    -0.00000209   -0.00001885    0.00003924
     atom    6 type  2   force =    -0.00026419    0.00017665   -0.00037064
     atom    7 type  2   force =     0.00000150    0.00000487    0.00151528
     atom    8 type  2   force =    -0.00002952   -0.00002820    0.00003937
     atom    9 type  2   force =     0.00034089    0.00009566    0.00009459
     atom   10 type  1   force =     0.00018702   -0.00004624   -0.00035104
     atom   11 type  1   force =    -0.00000385    0.00000175    0.00189583
     atom   12 type  1   force =    -0.00000560   -0.00001071    0.00000618
     atom   13 type  2   force =    -0.00000304   -0.00000012   -0.00328047
     atom   14 type  2   force =    -0.00000231   -0.00001313    0.00000956
     atom   15 type  2   force =     0.00028810    0.00009902    0.00031611
     atom   16 type  2   force =    -0.00000177    0.00000988    0.00151509
     atom   17 type  2   force =     0.00000577    0.00001724   -0.00000441
     atom   18 type  2   force =    -0.00016444    0.00000834   -0.00000744
     atom   19 type  1   force =    -0.00021157    0.00014151   -0.00007108
     atom   20 type  1   force =    -0.00000324   -0.00000239    0.00189697
     atom   21 type  1   force =     0.00000146    0.00000294   -0.00000064
     atom   22 type  2   force =    -0.00000277   -0.00000003   -0.00328035
     atom   23 type  2   force =    -0.00000172   -0.00001619   -0.00000350
     atom   24 type  2   force =    -0.00010162   -0.00024625   -0.00028791
     atom   25 type  2   force =    -0.00000200   -0.00000405    0.00149433
     atom   26 type  2   force =     0.00000636   -0.00000155   -0.00001346
     atom   27 type  2   force =     0.00001032   -0.00004895    0.00014325
     atom   28 type  1   force =     0.00003680    0.00000126   -0.00006644
     atom   29 type  1   force =    -0.00000293   -0.00000017    0.00189928
     atom   30 type  1   force =    -0.00000874   -0.00001262    0.00001246
     atom   31 type  2   force =    -0.00000266    0.00000007   -0.00328020
     atom   32 type  2   force =     0.00000934    0.00001453    0.00002532
     atom   33 type  2   force =    -0.00013352    0.00020193    0.00010082
     atom   34 type  2   force =    -0.00000242   -0.00000733    0.00149695
     atom   35 type  2   force =    -0.00000699   -0.00001085    0.00002056
     atom   36 type  2   force =    -0.00018793    0.00002542   -0.00015837
     atom   37 type  1   force =     0.00001517    0.00008269   -0.00003212
     atom   38 type  1   force =    -0.00000403    0.00000025    0.00190196
     atom   39 type  1   force =    -0.00002055   -0.00000411    0.00004259
     atom   40 type  2   force =    -0.00000275   -0.00000038   -0.00328116
     atom   41 type  2   force =    -0.00000856    0.00002262    0.00003003
     atom   42 type  2   force =     0.00043715   -0.00013576   -0.00007632
     atom   43 type  2   force =    -0.00000512    0.00000176    0.00150600
     atom   44 type  2   force =     0.00000164   -0.00000677   -0.00001593
     atom   45 type  2   force =    -0.00009407    0.00005264   -0.00013150
     atom   46 type  1   force =     0.00020460    0.00020651   -0.00037596
     atom   47 type  1   force =    -0.00000348   -0.00000014    0.00189363
     atom   48 type  1   force =     0.00000456   -0.00001645    0.00000179
     atom   49 type  2   force =    -0.00000287   -0.00000023   -0.00328088
     atom   50 type  2   force =     0.00001007   -0.00003956    0.00003720
     atom   51 type  2   force =    -0.00036849   -0.00040178    0.00015696
     atom   52 type  2   force =    -0.00000236    0.00000657    0.00151570
     atom   53 type  2   force =    -0.00002044    0.00002254    0.00005859
     atom   54 type  2   force =     0.00055663    0.00058662    0.00007237
     atom   55 type  1   force =     0.00016559   -0.00008340   -0.00002786
     atom   56 type  1   force =    -0.00000518   -0.00000307    0.00189775
     atom   57 type  1   force =    -0.00000830    0.00001282   -0.00000628
     atom   58 type  2   force =    -0.00000302    0.00000018   -0.00328099
     atom   59 type  2   force =    -0.00002421   -0.00003659   -0.00000733
     atom   60 type  2   force =    -0.00006193    0.00011713    0.00019312
[...]
     atom  133 type  2   force =    -0.00000269   -0.00000326    0.00149553
     atom  134 type  2   force =     0.00001293   -0.00000787    0.00000167
     atom  135 type  2   force =    -0.00012717   -0.00021668   -0.00021594
     atom  136 type  1   force =     0.00006979    0.00033104   -0.00008827
     atom  137 type  1   force =    -0.00000161   -0.00000064    0.00190135
     atom  138 type  1   force =    -0.00000512    0.00000369    0.00000832
     atom  139 type  2   force =    -0.00000294    0.00000055   -0.00328003
     atom  140 type  2   force =    -0.00001368   -0.00000459    0.00001663
     atom  141 type  2   force =     0.00025142    0.00012456    0.00007806
     atom  142 type  2   force =     0.00000008   -0.00000943    0.00150552
     atom  143 type  2   force =    -0.00001093   -0.00000732    0.00000175
     atom  144 type  2   force =     0.00010958   -0.00014181   -0.00023203
     atom  145 type  3   force =    -0.00005132   -0.00066005   -0.00016250
     atom  146 type  4   force =    -0.00055100    0.00003684    0.00009974
     atom  147 type  3   force =     0.00019851   -0.00010807    0.00018568

     Total force =     0.002435     Total SCF correction =     0.000596
     SCF correction compared to forces is large: reduce conv_thr to get better values
     Energy error            =      1.5E-05 Ry
     Gradient error          =      6.6E-04 Ry/Bohr

     bfgs converged in  21 scf cycles and  20 bfgs steps
     (criteria: energy <  1.0E-04 Ry, force <  1.0E-03 Ry/Bohr)

     End of BFGS Geometry Optimization

     Final energy             =  -27706.4504929497 Ry

     File ./outdir/pwscf.bfgs deleted, as requested
Begin final coordinates

ATOMIC_POSITIONS (angstrom)
Mo               1.5728530146        2.6735026205        6.0536753732
Mo               1.5769197498        0.9104407117       -6.0872367793    0   0   0
Mo              -0.0004331296        1.8208854700        0.0002367785
S                0.0000044503        0.0000077495       -7.6506323570    0   0   0
S                1.5771516261        0.9109574986       -1.5650263406
S               -0.0234934347        1.8141775128        4.4925498007
S                0.0000053241        0.0000068460       -4.5222282367    0   0   0
S                1.5762140104        0.9094718443        1.5666650102
S                0.0005363186        1.7923163458        7.6361126404
Mo              -0.0106491996        5.4602032664        6.1266673498
Mo               0.0000011799        3.6417399547       -6.0872367793    0   0   0
Mo              -1.5768932823        4.5523903779        0.0004980006
S               -1.5769141197        2.7313069925       -7.6506323570    0   0   0
S                0.0002103410        3.6418323958       -1.5646864860
S               -1.5695417626        4.5708259449        4.5630777818
S               -1.5769132459        2.7313060890       -4.5222282367    0   0   0
S               -0.0004779831        3.6420116241        1.5684644857
S               -1.6332283381        4.5131103490        7.7515039500
Mo              -1.5889360039        8.2058887640        6.0844037895
Mo              -1.5769173901        6.3730391977       -6.0872367793    0   0   0
Mo              -3.1537874393        7.2828972311       -0.0009372477
S               -3.1538326896        5.4626062355       -7.6506323570    0   0   0
S               -1.5768557301        6.3722864964       -1.5661589807
S               -3.1536739472        7.2674095053        4.5242396041
S               -3.1538318159        5.4626053320       -4.5222282367    0   0   0
S               -1.5766848798        6.3735231186        1.5670829185
S               -3.1562539947        7.3012396859        7.6613908761
Mo               3.1552884964       -0.0116384101        6.0454750814
Mo              -3.1538359601        9.1043384407       -6.0872367793    0   0   0
Mo              -4.7308679774       10.0142388948       -0.0007698206
S               -4.7307512596        8.1939054785       -7.6506323570    0   0   0
S               -3.1539107387        9.1040111417       -1.5664367767
S               -4.7361663781        9.9982222767        4.4892095353
S               -4.7307503859        8.1939045750       -4.5222282367    0   0   0
S               -3.1536120013        9.1034070815        1.5658248306
S               -4.7256523561       10.0287427818        7.6312706644
Mo               4.7313241271        2.6943759704        6.0672243264
Mo               4.7307503218        0.9104407117       -6.0872367793    0   0   0
Mo               3.1540668367        1.8208751653        0.0012490951
S                3.1538350223        0.0000077495       -7.6506323570    0   0   0
S                4.7305418708        0.9107324044       -1.5654131317
S                3.1590697229        1.8037868622        4.4734375830
S                3.1538358961        0.0000068460       -4.5222282367    0   0   0
S                4.7320485679        0.9091716252        1.5663787288
S                3.1531385984        1.7754696862        7.6217868382
Mo               3.1603768814        5.4567848669        6.0961563459
Mo               3.1538317519        3.6417399547       -6.0872367793    0   0   0
Mo               1.5768955705        4.5521589400        0.0012202210
S                1.5769164523        2.7313069925       -7.6506323570    0   0   0
S                3.1537906588        3.6415650678       -1.5640743122
S                1.5647283835        4.5620249718        4.5577148395
S                1.5769173261        2.7313060890       -4.5222282367    0   0   0
S                3.1541511220        3.6426148147        1.5694045864
S                1.6126437705        4.4017165265        7.6595359207
Mo               1.5782098101        8.2243176328        6.0886869681
Mo               1.5769131819        6.3730391977       -6.0872367793    0   0   0
Mo               0.0002451232        7.2826327411       -0.0010064824
S               -0.0000021176        5.4626062355       -7.6506323570    0   0   0
S                1.5770668214        6.3717578437       -1.5659086405
S               -0.0010352098        7.2677919891        4.5538732991
[...]
S                6.3076599001        5.4626053320       -4.5222282367    0   0   0
S                7.8844142695        6.3735116327        1.5668014973
S                6.3070743245        7.3841090626        7.6865394158
Mo              -0.0050073516       -0.0061592204        6.0578345776
Mo               6.3076557559        9.1043384407       -6.0872367793    0   0   0
Mo               4.7304639101       10.0142173179       -0.0014344670
S                4.7307404564        8.1939054785       -7.6506323570    0   0   0
S                6.3077823060        9.1039125910       -1.5665547863
S                4.7225476346       10.0155675709        4.4930807129
S                4.7307413301        8.1939045750       -4.5222282367    0   0   0
S                6.3071034263        9.1029363727        1.5659451301
S                4.7286197350       10.0413463910        7.6410091710
Pt               3.0957126859        5.4797525834        9.0519850668
Pd               6.1524248421        5.5099027643        9.0845441230
Pt               0.2034335922        5.5060177690        8.9858426112
End final coordinates

     Writing all to output data dir ./outdir/pwscf.save/ :
     XML data file, charge density, pseudopotentials, collected wavefunctions

     General routines

     Parallel routines

   This run was terminated on:  20: 9: 0  31Mar2024

   JOB DONE.