     Program PWSCF v.7.2 starts on 10Aug2023 at 23:37:17

     Waiting for input...
     Reading input from standard input
Warning: card &CELL ignored
Warning: card / ignored

     Current dimensions of program PWSCF are:
     Max number of different atomic species (ntypx) = 10
     Max number of k-points (npk) =  40000
     Max angular momentum in pseudopotentials (lmaxx) =  4
     file Mo.pbe-spn-kjpaw_psl.1.0.0.UPF: wavefunction(s)  4S 4D renormalized
     file S.pbe-n-kjpaw_psl.1.0.0.UPF: wavefunction(s)  3S 3P renormalized
     file Pd.pbe-spn-kjpaw_psl.1.0.0.UPF: wavefunction(s)  4S 5S 4D renormalized

     R & G space division:  proc/nbgrp/npool/nimage =      36
     Subspace diagonalization in iterative solution of the eigenvalue problem:
     one sub-group per band group will be used

     Using Slab Decomposition

     bravais-lattice index     =            0
     lattice parameter (alat)  =      23.8395  a.u.
     unit-cell volume          =   28182.8498 (a.u.)^3
     number of atoms/cell      =          145
     number of atomic types    =            3
     number of electrons       =      1266.00
     number of Kohn-Sham states=          760
     kinetic-energy cutoff     =      77.0000  Ry
     charge density cutoff     =     539.0000  Ry
     scf convergence threshold =      1.0E-06
     mixing beta               =       0.2000
     number of iterations used =            8  plain     mixing
     energy convergence thresh.=      1.0E-04
     force convergence thresh. =      1.0E-03
     Exchange-correlation= SLA  PW   PBX  PBC
                           (   1   4   3   4   0   0   0)
     nstep                     =         1000

     Effective Screening Medium Method
     Boundary Conditions: Vacuum-Slab-Vacuum
     total charge in unit cell        =   0.0000
     grid points for fit at edges     =        4

     celldm(1)=  23.839504  celldm(2)=   0.000000  celldm(3)=   0.000000
     celldm(4)=   0.000000  celldm(5)=   0.000000  celldm(6)=   0.000000

     crystal axes: (cart. coord. in units of alat)
               a(1) = (   1.000000   0.000000   0.000000 )
               a(2) = (  -0.500001   0.866026   0.000000 )
               a(3) = (   0.000000   0.000000   2.401941 )

     reciprocal axes: (cart. coord. in units 2 pi/alat)
               b(1) = (  1.000000  0.577351  0.000000 )
               b(2) = (  0.000000  1.154700  0.000000 )
               b(3) = (  0.000000  0.000000  0.416330 )

     PseudoPot. # 1 for Mo read from file:
     ./pseudo/Mo.pbe-spn-kjpaw_psl.1.0.0.UPF
     MD5 check sum: 317bf72632116215fd98f72de1686f13
     Pseudo is Projector augmented-wave + core cor, Zval = 14.0
     Generated using 'atomic' code by A. Dal Corso  v.7.2
     Shape of augmentation charge: PSQ
     Using radial grid of 1229 points,  6 beta functions with:
                l(1) =   0
                l(2) =   0
                l(3) =   1
                l(4) =   1
                l(5) =   2
                l(6) =   2
     Q(r) pseudized with 0 coefficients

     PseudoPot. # 2 for S  read from file:
     ./pseudo/S.pbe-n-kjpaw_psl.1.0.0.UPF
     MD5 check sum: 8b7b5302570d38d5e87fed6a1065abda
     Pseudo is Projector augmented-wave + core cor, Zval =  6.0
     Generated using 'atomic' code by A. Dal Corso  v.7.2
     Shape of augmentation charge: PSQ
     Using radial grid of 1151 points,  6 beta functions with:
                l(1) =   0
                l(2) =   0
                l(3) =   1
                l(4) =   1
                l(5) =   2
                l(6) =   2
     Q(r) pseudized with 0 coefficients

     PseudoPot. # 3 for Pd read from file:
     ./pseudo/Pd.pbe-spn-kjpaw_psl.1.0.0.UPF
     MD5 check sum: a60571a671f2502b8a6a4569d20a6edb
     Pseudo is Projector augmented-wave + core cor, Zval = 18.0
     Generated using 'atomic' code by A. Dal Corso  v.7.2
     Shape of augmentation charge: PSQ
     Using radial grid of 1235 points,  6 beta functions with:
                l(1) =   0
                l(2) =   0
                l(3) =   1
                l(4) =   1
                l(5) =   2
                l(6) =   2
     Q(r) pseudized with 0 coefficients

     atomic species   valence    mass     pseudopotential
        Mo            14.00    95.95000     Mo( 1.00)
        S              6.00    32.06000     S ( 1.00)
        Pd            18.00   106.42000     Pd( 1.00)

     No symmetry found

   Cartesian axes

     site n.     atom                  positions (alat units)
         1           Mo  tau(   1) = (   0.1249983   0.2165050   0.4823527  )
         2           Mo  tau(   2) = (   0.1250004   0.0721694  -0.4825273  )
         3           Mo  tau(   3) = (  -0.0000019   0.1443377  -0.0000751  )
         4           S   tau(   4) = (   0.0000004   0.0000006  -0.6064556  )
         5           S   tau(   5) = (   0.1249982   0.0721692  -0.1241671  )
         6           S   tau(   6) = (  -0.0000016   0.1443364   0.3582431  )
         7           S   tau(   7) = (   0.0000004   0.0000005  -0.3584711  )
         8           S   tau(   8) = (   0.1249982   0.0721691   0.1241550  )
         9           S   tau(   9) = (  -0.0000015   0.1443364   0.6067201  )
        10           Mo  tau(  10) = (  -0.0000021   0.4330115   0.4823527  )
        11           Mo  tau(  11) = (   0.0000001   0.2886759  -0.4825273  )
        12           Mo  tau(  12) = (  -0.1250009   0.3608432  -0.0000744  )
        13           S   tau(  13) = (  -0.1249999   0.2165071  -0.6064556  )
        14           S   tau(  14) = (  -0.0000017   0.2886753  -0.1241667  )
        15           S   tau(  15) = (  -0.1250020   0.3608427   0.3582430  )
        16           S   tau(  16) = (  -0.1249998   0.2165070  -0.3584711  )
        17           S   tau(  17) = (  -0.0000017   0.2886752   0.1241551  )
        18           S   tau(  18) = (  -0.1250020   0.3608428   0.6067200  )
        19           Mo  tau(  19) = (  -0.1250025   0.6495181   0.4823527  )
        20           Mo  tau(  20) = (  -0.1250002   0.5051824  -0.4825273  )
        21           Mo  tau(  21) = (  -0.2500019   0.5773502  -0.0000747  )
        22           S   tau(  22) = (  -0.2500002   0.4330136  -0.6064556  )
        23           S   tau(  23) = (  -0.1250019   0.5051815  -0.1241659  )
        24           S   tau(  24) = (  -0.2500023   0.5773492   0.3582430  )
        25           S   tau(  25) = (  -0.2500001   0.4330135  -0.3584711  )
        26           S   tau(  26) = (  -0.1250021   0.5051816   0.1241548  )
        27           S   tau(  27) = (  -0.2500023   0.5773492   0.6067201  )
        28           Mo  tau(  28) = (   0.2499985  -0.0000014   0.4823528  )
        29           Mo  tau(  29) = (  -0.2500004   0.7216889  -0.4825273  )
        30           Mo  tau(  30) = (  -0.3750035   0.7938587  -0.0000751  )
        31           S   tau(  31) = (  -0.3750004   0.6495201  -0.6064556  )
        32           S   tau(  32) = (  -0.2500024   0.7216883  -0.1241659  )
        33           S   tau(  33) = (  -0.3750023   0.7938557   0.3582430  )
        34           S   tau(  34) = (  -0.3750004   0.6495200  -0.3584711  )
        35           S   tau(  35) = (  -0.2500028   0.7216884   0.1241544  )
        36           S   tau(  36) = (  -0.3750023   0.7938556   0.6067199  )
        37           Mo  tau(  37) = (   0.3749981   0.2165050   0.4823525  )
        38           Mo  tau(  38) = (   0.3750004   0.0721694  -0.4825273  )
        39           Mo  tau(  39) = (   0.2499973   0.1443382  -0.0000750  )
        40           S   tau(  40) = (   0.2500004   0.0000006  -0.6064556  )
        41           S   tau(  41) = (   0.3749982   0.0721689  -0.1241664  )
        42           S   tau(  42) = (   0.2499983   0.1443364   0.3582430  )
        43           S   tau(  43) = (   0.2500004   0.0000005  -0.3584711  )
        44           S   tau(  44) = (   0.3749982   0.0721692   0.1241548  )
        45           S   tau(  45) = (   0.2499984   0.1443363   0.6067201  )
        46           Mo  tau(  46) = (   0.2499981   0.4330115   0.4823527  )
        47           Mo  tau(  47) = (   0.2500001   0.2886759  -0.4825273  )
        48           Mo  tau(  48) = (   0.1249978   0.3608446  -0.0000747  )
        49           S   tau(  49) = (   0.1250001   0.2165071  -0.6064556  )
        50           S   tau(  50) = (   0.2499977   0.2886754  -0.1241668  )
        51           S   tau(  51) = (   0.1249981   0.3608427   0.3582430  )
        52           S   tau(  52) = (   0.1250002   0.2165070  -0.3584711  )
        53           S   tau(  53) = (   0.2499978   0.2886754   0.1241550  )
        54           S   tau(  54) = (   0.1249981   0.3608427   0.6067200  )
        55           Mo  tau(  55) = (   0.1249976   0.6495181   0.4823528  )
        56           Mo  tau(  56) = (   0.1249998   0.5051824  -0.4825273  )
        57           Mo  tau(  57) = (  -0.0000011   0.5773502  -0.0000746  )
        58           S   tau(  58) = (  -0.0000002   0.4330136  -0.6064556  )
        59           S   tau(  59) = (   0.1249978   0.5051816  -0.1241667  )
        60           S   tau(  60) = (  -0.0000023   0.5773491   0.3582431  )
[...]
       131           S   tau( 131) = (   0.6249978   0.5051817  -0.1241660  )
       132           S   tau( 132) = (   0.4999980   0.5773491   0.3582431  )
       133           S   tau( 133) = (   0.4999999   0.4330135  -0.3584711  )
       134           S   tau( 134) = (   0.6249975   0.5051818   0.1241544  )
       135           S   tau( 135) = (   0.4999981   0.5773491   0.6067201  )
       136           Mo  tau( 136) = (  -0.0000012  -0.0000013   0.4823527  )
       137           Mo  tau( 137) = (   0.4999996   0.7216889  -0.4825273  )
       138           Mo  tau( 138) = (   0.3749969   0.7938580  -0.0000749  )
       139           S   tau( 139) = (   0.3749996   0.6495201  -0.6064556  )
       140           S   tau( 140) = (   0.4999973   0.7216884  -0.1241666  )
       141           S   tau( 141) = (   0.3749976   0.7938558   0.3582430  )
       142           S   tau( 142) = (   0.3749996   0.6495200  -0.3584711  )
       143           S   tau( 143) = (   0.4999974   0.7216884   0.1241546  )
       144           S   tau( 144) = (   0.3749976   0.7938557   0.6067202  )
       145           Pd  tau( 145) = (   0.1250067   0.5051793   0.7335524  )

     DFT-D3 Dispersion Correction (3-body terms):
       Reference C6 values for interpolation:

         atom   Coordination number   C6
         S          0.000           268.01
         S          0.995           261.99
         S          1.990           251.62
         Mo         0.000          1691.79
         Mo         1.942          1004.01
         Mo        11.056           674.22
         Pd         0.000          1217.01
         Pd         1.863           573.90
         Pd         5.710           531.75

       Values used:

         atom   Coordination number  R0_AB[au]  C6      C8
         Mo        10.190            3.547    674.22  77634.20
         Mo        10.189            3.547    674.22  77634.20
         Mo        10.201            3.547    674.22  77634.20
         S          3.753            3.128    251.62  12327.25
[...]
     atom   13 type  2   force =     0.00000000    0.00000000    0.00000000
     atom   14 type  2   force =    -0.00000135   -0.00000751   -0.00000475
     atom   15 type  2   force =    -0.00000088   -0.00000033    0.00000525
     atom   16 type  2   force =     0.00000000    0.00000000    0.00000000
     atom   17 type  2   force =    -0.00000732   -0.00000846   -0.00001294
     atom   18 type  2   force =     0.00000128    0.00000036    0.00002142
     atom   19 type  1   force =     0.00004954   -0.00002646    0.00004574
     atom   20 type  1   force =     0.00000000    0.00000000    0.00000000
     atom   21 type  1   force =    -0.00000722    0.00000571    0.00000602
     atom   22 type  2   force =     0.00000000    0.00000000    0.00000000
     atom   23 type  2   force =    -0.00000792    0.00000164   -0.00000357
     atom   24 type  2   force =    -0.00000166    0.00000542    0.00000251
     atom   25 type  2   force =     0.00000000    0.00000000    0.00000000
     atom   26 type  2   force =    -0.00001010   -0.00000244   -0.00001297
     atom   27 type  2   force =     0.00000042   -0.00000549    0.00001999
     atom   28 type  1   force =     0.00001404    0.00000719    0.00003051
     atom   29 type  1   force =     0.00000000    0.00000000    0.00000000
     atom   30 type  1   force =     0.00000065   -0.00000017    0.00001047
     atom   31 type  2   force =     0.00000000    0.00000000    0.00000000
     atom   32 type  2   force =     0.00000238   -0.00000097    0.00000422
     atom   33 type  2   force =     0.00000020   -0.00000057   -0.00000719
     atom   34 type  2   force =     0.00000000    0.00000000    0.00000000
     atom   35 type  2   force =    -0.00000907    0.00000514    0.00000325
     atom   36 type  2   force =     0.00000035   -0.00000022    0.00001469
     atom   37 type  1   force =     0.00000129    0.00000142    0.00002295
     atom   38 type  1   force =     0.00000000    0.00000000    0.00000000
     atom   39 type  1   force =     0.00000028   -0.00000783    0.00000503
     atom   40 type  2   force =     0.00000000    0.00000000    0.00000000
     atom   41 type  2   force =     0.00000137    0.00000084    0.00000181
     atom   42 type  2   force =    -0.00000272   -0.00000325    0.00000300
     atom   43 type  2   force =     0.00000000    0.00000000    0.00000000
     atom   44 type  2   force =    -0.00000799   -0.00000433    0.00000680
     atom   45 type  2   force =     0.00000557    0.00000425    0.00001998
     atom   46 type  1   force =    -0.00001219    0.00000739   -0.00002396
     atom   47 type  1   force =     0.00000000    0.00000000    0.00000000
     atom   48 type  1   force =     0.00000102   -0.00000670   -0.00002078
     atom   49 type  2   force =     0.00000000    0.00000000    0.00000000
     atom   50 type  2   force =     0.00000159   -0.00000744   -0.00000405
     atom   51 type  2   force =     0.00000039    0.00001118    0.00001248
     atom   52 type  2   force =     0.00000000    0.00000000    0.00000000
     atom   53 type  2   force =     0.00000778   -0.00000802   -0.00001375
     atom   54 type  2   force =     0.00000053   -0.00002533    0.00002653
     atom   55 type  1   force =    -0.00000006   -0.00001341   -0.00002750
     atom   56 type  1   force =     0.00000000    0.00000000    0.00000000
     atom   57 type  1   force =    -0.00000725    0.00000587   -0.00001938
     atom   58 type  2   force =     0.00000000    0.00000000    0.00000000
     atom   59 type  2   force =     0.00000095   -0.00000093    0.00000510
     atom   60 type  2   force =     0.00001018   -0.00000461    0.00001237
[...]
     atom  131 type  2   force =    -0.00000004   -0.00000182    0.00000125
     atom  132 type  2   force =     0.00000119    0.00000472    0.00000274
     atom  133 type  2   force =     0.00000000    0.00000000    0.00000000
     atom  134 type  2   force =    -0.00000063    0.00000943    0.00000682
     atom  135 type  2   force =    -0.00000113   -0.00000604    0.00002007
     atom  136 type  1   force =    -0.00001313    0.00000686    0.00002942
     atom  137 type  1   force =     0.00000000    0.00000000    0.00000000
     atom  138 type  1   force =     0.00000819    0.00000338    0.00000453
     atom  139 type  2   force =     0.00000000    0.00000000    0.00000000
     atom  140 type  2   force =    -0.00000288   -0.00000092    0.00000353
     atom  141 type  2   force =     0.00000471   -0.00000146    0.00000270
     atom  142 type  2   force =     0.00000000    0.00000000    0.00000000
     atom  143 type  2   force =     0.00000806    0.00000511    0.00000411
     atom  144 type  2   force =    -0.00000607    0.00000174    0.00002002
     atom  145 type  3   force =     0.00000255   -0.00000328    0.00031872

     DFT-D3 dispersion contribution to forces:
     atom    1 type  1   force =    -0.00000000    0.00035844   -0.00227537
     atom    2 type  1   force =     0.00000000   -0.00000002    0.00260441
     atom    3 type  1   force =    -0.00000047   -0.00000291   -0.00002710
     atom    4 type  2   force =    -0.00000004    0.00000002    0.00441171
     atom    5 type  2   force =     0.00000000    0.00000007   -0.00004745
     atom    6 type  2   force =     0.00000838    0.00000187   -0.00017482
     atom    7 type  2   force =     0.00000001   -0.00000002    0.00023556
     atom    8 type  2   force =    -0.00000000   -0.00000669    0.00009793
     atom    9 type  2   force =     0.00010017    0.00028807   -0.00431001
     atom   10 type  1   force =     0.00014391    0.00008309   -0.00230997
     atom   11 type  1   force =    -0.00000005   -0.00000001    0.00260439
     atom   12 type  1   force =    -0.00000301   -0.00000171   -0.00003412
     atom   13 type  2   force =    -0.00000001    0.00000000    0.00441167
     atom   14 type  2   force =     0.00000024   -0.00000054   -0.00004910
     atom   15 type  2   force =     0.00003955    0.00002284   -0.00011111
     atom   16 type  2   force =    -0.00000005   -0.00000002    0.00023563
     atom   17 type  2   force =    -0.00000103   -0.00000875    0.00008829
     atom   18 type  2   force =     0.00047963    0.00027691   -0.00417320
     atom   19 type  1   force =     0.00031042   -0.00017922   -0.00227540
     atom   20 type  1   force =    -0.00000004   -0.00000003    0.00260441
     atom   21 type  1   force =    -0.00000275    0.00000105   -0.00002711
     atom   22 type  2   force =    -0.00000000   -0.00000001    0.00441167
     atom   23 type  2   force =    -0.00000035    0.00000047   -0.00004909
     atom   24 type  2   force =     0.00000581    0.00000632   -0.00017483
     atom   25 type  2   force =    -0.00000005   -0.00000001    0.00023563
     atom   26 type  2   force =    -0.00000810    0.00000347    0.00008828
     atom   27 type  2   force =     0.00029956   -0.00005728   -0.00431001
     atom   28 type  1   force =     0.00000699    0.00000404   -0.00260099
     atom   29 type  1   force =    -0.00000001    0.00000000    0.00260443
     atom   30 type  1   force =     0.00000001   -0.00000002   -0.00002053
     atom   31 type  2   force =     0.00000000   -0.00000004    0.00441171
     atom   32 type  2   force =     0.00000006   -0.00000003   -0.00004743
     atom   33 type  2   force =     0.00000001   -0.00000000   -0.00020367
     atom   34 type  2   force =     0.00000000    0.00000001    0.00023557
     atom   35 type  2   force =    -0.00000581    0.00000334    0.00009791
     atom   36 type  2   force =    -0.00000000    0.00000000   -0.00441081
     atom   37 type  1   force =    -0.00013226    0.00015066   -0.00248150
     atom   38 type  1   force =     0.00000002    0.00000001    0.00260447
     atom   39 type  1   force =     0.00000048   -0.00000292   -0.00002710
     atom   40 type  2   force =     0.00000004    0.00000002    0.00441171
     atom   41 type  2   force =    -0.00000027   -0.00000016   -0.00004787
     atom   42 type  2   force =    -0.00000837    0.00000187   -0.00017483
     atom   43 type  2   force =    -0.00000001   -0.00000002    0.00023557
     atom   44 type  2   force =    -0.00000301   -0.00000174    0.00009038
     atom   45 type  2   force =    -0.00010017    0.00028808   -0.00431000
     atom   46 type  1   force =    -0.00014390    0.00008308   -0.00230997
     atom   47 type  1   force =     0.00000005   -0.00000001    0.00260440
     atom   48 type  1   force =    -0.00000000   -0.00000464   -0.00003978
     atom   49 type  2   force =     0.00000000   -0.00000001    0.00441164
     atom   50 type  2   force =    -0.00000023   -0.00000053   -0.00004910
     atom   51 type  2   force =     0.00000000    0.00009949    0.00011216
     atom   52 type  2   force =     0.00000000   -0.00000008    0.00023576
     atom   53 type  2   force =     0.00000103   -0.00000876    0.00008829
     atom   54 type  2   force =     0.00000000    0.00007991   -0.00434437
     atom   55 type  1   force =     0.00000001   -0.00016617   -0.00230997
     atom   56 type  1   force =    -0.00000000    0.00000000    0.00260431
     atom   57 type  1   force =    -0.00000404    0.00000234   -0.00003979
     atom   58 type  2   force =    -0.00000002   -0.00000001    0.00441150
     atom   59 type  2   force =     0.00000001    0.00000001   -0.00005057
     atom   60 type  2   force =     0.00008615   -0.00004974    0.00011215
[...]
     atom  131 type  2   force =    -0.00000000    0.00000032   -0.00004787
     atom  132 type  2   force =    -0.00000581    0.00000632   -0.00017482
     atom  133 type  2   force =     0.00000004   -0.00000002    0.00023564
     atom  134 type  2   force =     0.00000001    0.00000348    0.00009039
     atom  135 type  2   force =    -0.00029957   -0.00005729   -0.00431000
     atom  136 type  1   force =    -0.00000701    0.00000403   -0.00260098
     atom  137 type  1   force =     0.00000001    0.00000000    0.00260442
     atom  138 type  1   force =     0.00000228    0.00000185   -0.00002711
     atom  139 type  2   force =     0.00000001    0.00000001    0.00441164
     atom  140 type  2   force =    -0.00000006   -0.00000004   -0.00004745
     atom  141 type  2   force =     0.00000257   -0.00000820   -0.00017481
     atom  142 type  2   force =     0.00000007    0.00000004    0.00023576
     atom  143 type  2   force =     0.00000581    0.00000335    0.00009792
     atom  144 type  2   force =    -0.00019939   -0.00023079   -0.00431000
     atom  145 type  3   force =     0.00000002    0.00000000   -0.00626664

     Total force =     0.002836     Total SCF correction =     0.000391
     SCF correction compared to forces is large: reduce conv_thr to get better values
     Energy error            =      2.5E-05 Ry
     Gradient error          =      8.8E-04 Ry/Bohr

     bfgs converged in  10 scf cycles and   9 bfgs steps
     (criteria: energy <  1.0E-04 Ry, force <  1.0E-03 Ry/Bohr)

     End of BFGS Geometry Optimization

     Final energy             =  -24357.1460896428 Ry

     File ./outdir/pwscf.bfgs deleted, as requested
Begin final coordinates

ATOMIC_POSITIONS (angstrom)
Mo            1.5768922120        2.7159222028        6.0764905622
Mo            1.5769197498        0.9104407117       -6.0872367793    0   0   0
Mo           -0.0000086427        1.8209327785       -0.0010833172
S             0.0000044503        0.0000077495       -7.6506323570    0   0   0
S             1.5769012234        0.9103772291       -1.5664435084
S            -0.0041111965        1.8182008636        4.5135136600
S             0.0000053241        0.0000068460       -4.5222282367    0   0   0
S             1.5768996319        0.9104510938        1.5661830699
S            -0.0007464312        1.8178908806        7.6513433043
Mo           -0.0032941794        5.4606915468        6.0890506306
Mo            0.0000011799        3.6417399547       -6.0872367793    0   0   0
Mo           -1.5769305169        4.5521748355       -0.0008220098
S            -1.5769141197        2.7313069925       -7.6506323570    0   0   0
S            -0.0000269157        3.6418459084       -1.5663441371
S            -1.5754472676        4.5530079334        4.5205360091
S            -1.5769132459        2.7313060890       -4.5222282367    0   0   0
S             0.0001687010        3.6417951253        1.5662965501
S            -1.5762198327        4.5525617246        7.6574994431
Mo           -1.5902381532        8.2015570439        6.0764980180
Mo           -1.5769173901        6.3730391977       -6.0872367793    0   0   0
Mo           -3.1537930713        7.2834437795       -0.0010875343
S            -3.1538326896        5.4626062355       -7.6506323570    0   0   0
S            -1.5768520779        6.3729854538       -1.5663583437
S            -3.1581907774        7.2812313938        4.5135196662
S            -3.1538318159        5.4626053320       -4.5222282367    0   0   0
S            -1.5767978466        6.3731811168        1.5663079510
S            -3.1567809789        7.2842965356        7.6513435792
Mo            3.1555975781        0.0010116753        6.0812937711
Mo           -3.1538359601        9.1043384407       -6.0872367793    0   0   0
Mo           -4.7307752523       10.0147597770       -0.0009318924
S            -4.7307512596        8.1939054785       -7.6506323570    0   0   0
S            -3.1538982834        9.1043500128       -1.5664680829
S            -4.7307777745       10.0147455129        4.5179234304
S            -4.7307503859        8.1939045750       -4.5222282367    0   0   0
S            -3.1538321120        9.1043127452        1.5661979943
S            -4.7307775422       10.0147452496        7.6484570663
Mo            4.7305121568        2.7324006390        6.0854935063
Mo            4.7307503218        0.9104407117       -6.0872367793    0   0   0
Mo            3.1537956965        1.8209311905       -0.0010840570
S             3.1538350223        0.0000077495       -7.6506323570    0   0   0
S             4.7306639958        0.9103934816       -1.5666764216
S             3.1578977408        1.8181999989        4.5135139390
S             3.1538358961        0.0000068460       -4.5222282367    0   0   0
S             4.7309174884        0.9105342798        1.5655666235
S             3.1545341992        1.8178909900        7.6513399642
Mo            3.1570802729        5.4606942176        6.0890479739
Mo            3.1538317519        3.6417399547       -6.0872367793    0   0   0
Mo            1.5768893359        4.5523422305       -0.0008790335
S             1.5769164523        2.7313069925       -7.6506323570    0   0   0
S             3.1538084421        3.6418391337       -1.5663502237
S             1.5768926639        4.5493075390        4.5291363095
S             1.5769173261        2.7313060890       -4.5222282367    0   0   0
S             3.1536180765        3.6417931876        1.5662951547
S             1.5768921033        4.5371359953        7.6716136451
Mo            1.5768927494        8.1976579860        6.0890510895
Mo            1.5769131819        6.3730391977       -6.0872367793    0   0   0
Mo            0.0001225149        7.2833768467       -0.0008815816
S            -0.0000021176        5.4626062355       -7.6506323570    0   0   0
S             1.5768802994        6.3730324350       -1.5664129425
S            -0.0024825265        7.2848667857        4.5291408712
[...]
S             7.8845544049        6.3731026622       -1.5666737219
S             6.3119772098        7.2812312685        4.5135110200
S             6.3076599001        5.4626053320       -4.5222282367    0   0   0
S             7.8845480594        6.3728136541        1.5655567664
S             6.3105599459        7.2842988447        7.6513387520
Mo           -0.0018041266        0.0010150714        6.0812930162
Mo            6.3076557559        9.1043384407       -6.0872367793    0   0   0
Mo            4.7306639184       10.0147170631       -0.0010942110
S             4.7307404564        8.1939054785       -7.6506323570    0   0   0
S             6.3076813940        9.1043506481       -1.5664584163
S             4.7309651952       10.0196177162        4.5135119311
S             4.7307413301        8.1939045750       -4.5222282367    0   0   0
S             6.3076067303        9.1043088936        1.5661814747
S             4.7329158229       10.0168554525        7.6513419792
Pd            1.5769429031        6.3730128150        9.2097027479
End final coordinates

     Writing all to output data dir ./outdir/pwscf.save/

     General routines

     Parallel routines

   This run was terminated on:  12: 5:33  11Aug2023

   JOB DONE.
Application 11026421 resources: utime ~1597058s, stime ~19119s, Rss ~2380720, inblocks ~0, outblocks ~34278968