     Program PWSCF v.7.2 starts on  8Nov2023 at  0: 2:16

     Waiting for input...
     Reading input from standard input
Warning: card &CELL ignored
Warning: card / ignored

     Current dimensions of program PWSCF are:
     Max number of different atomic species (ntypx) = 10
     Max number of k-points (npk) =  40000
     Max angular momentum in pseudopotentials (lmaxx) =  4
     file Mo.pbe-spn-kjpaw_psl.1.0.0.UPF: wavefunction(s)  4S 4D renormalized
     file S.pbe-n-kjpaw_psl.1.0.0.UPF: wavefunction(s)  3S 3P renormalized
     file Pd.pbe-spn-kjpaw_psl.1.0.0.UPF: wavefunction(s)  4S 5S 4D renormalized

     R & G space division:  proc/nbgrp/npool/nimage =      36
     Subspace diagonalization in iterative solution of the eigenvalue problem:
     one sub-group per band group will be used

     Using Slab Decomposition

     bravais-lattice index     =            0
     lattice parameter (alat)  =      23.8199  a.u.
     unit-cell volume          =   33861.0370 (a.u.)^3
     number of atoms/cell      =          195
     number of atomic types    =            3
     number of electrons       =      1718.00
     number of Kohn-Sham states=         1031
     kinetic-energy cutoff     =      77.0000  Ry
     charge density cutoff     =     539.0000  Ry
     scf convergence threshold =      1.0E-06
     mixing beta               =       0.2000
     number of iterations used =            8  plain     mixing
     energy convergence thresh.=      1.0E-04
     force convergence thresh. =      1.0E-03
     Exchange-correlation= SLA  PW   PBX  PBC
                           (   1   4   3   4   0   0   0)
     nstep                     =         1000

     Effective Screening Medium Method
     Boundary Conditions: Vacuum-Slab-Vacuum
     total charge in unit cell        =   0.0000
     grid points for fit at edges     =        4

     celldm(1)=  23.819920  celldm(2)=   0.000000  celldm(3)=   0.000000
     celldm(4)=   0.000000  celldm(5)=   0.000000  celldm(6)=   0.000000

     crystal axes: (cart. coord. in units of alat)
               a(1) = (   1.000000   0.000000   0.000000 )
               a(2) = (  -0.499999   0.866026   0.000000 )
               a(3) = (   0.000000   0.000000   2.893000 )

     reciprocal axes: (cart. coord. in units 2 pi/alat)
               b(1) = (  1.000000  0.577349  0.000000 )
               b(2) = (  0.000000  1.154700  0.000000 )
               b(3) = (  0.000000  0.000000  0.345662 )

     PseudoPot. # 1 for Mo read from file:
     ./pseudo/Mo.pbe-spn-kjpaw_psl.1.0.0.UPF
     MD5 check sum: 317bf72632116215fd98f72de1686f13
     Pseudo is Projector augmented-wave + core cor, Zval = 14.0
     Generated using 'atomic' code by A. Dal Corso  v.7.2
     Shape of augmentation charge: PSQ
     Using radial grid of 1229 points,  6 beta functions with:
                l(1) =   0
                l(2) =   0
                l(3) =   1
                l(4) =   1
                l(5) =   2
                l(6) =   2
     Q(r) pseudized with 0 coefficients

     PseudoPot. # 2 for S  read from file:
     ./pseudo/S.pbe-n-kjpaw_psl.1.0.0.UPF
     MD5 check sum: 8b7b5302570d38d5e87fed6a1065abda
     Pseudo is Projector augmented-wave + core cor, Zval =  6.0
     Generated using 'atomic' code by A. Dal Corso  v.7.2
     Shape of augmentation charge: PSQ
     Using radial grid of 1151 points,  6 beta functions with:
                l(1) =   0
                l(2) =   0
                l(3) =   1
                l(4) =   1
                l(5) =   2
                l(6) =   2
     Q(r) pseudized with 0 coefficients

     PseudoPot. # 3 for Pd read from file:
     ./pseudo/Pd.pbe-spn-kjpaw_psl.1.0.0.UPF
     MD5 check sum: a60571a671f2502b8a6a4569d20a6edb
     Pseudo is Projector augmented-wave + core cor, Zval = 18.0
     Generated using 'atomic' code by A. Dal Corso  v.7.2
     Shape of augmentation charge: PSQ
     Using radial grid of 1235 points,  6 beta functions with:
                l(1) =   0
                l(2) =   0
                l(3) =   1
                l(4) =   1
                l(5) =   2
                l(6) =   2
     Q(r) pseudized with 0 coefficients

     atomic species   valence    mass     pseudopotential
        Mo            14.00    95.95000     Mo( 1.00)
        S              6.00    32.06000     S ( 1.00)
        Pd            18.00   106.42000     Pd( 1.00)

     No symmetry found

   Cartesian axes

     site n.     atom                  positions (alat units)
         1           Mo  tau(   1) = (   0.0000010   0.1443372  -0.7272732  )
         2           Mo  tau(   2) = (   0.1249995   0.0721706  -0.2424038  )
         3           S   tau(   3) = (   0.0000015   0.1443386  -0.3667807  )
         4           S   tau(   4) = (   0.1250010   0.0721682  -0.6030489  )
         5           S   tau(   5) = (   0.1250010   0.0721683  -0.8514963  )
         6           S   tau(   6) = (   0.0000015   0.1443389  -0.1180260  )
         7           Mo  tau(   7) = (   0.0000222   0.1444187   0.2425595  )
         8           Mo  tau(   8) = (   0.1245966   0.0727010   0.7278826  )
         9           S   tau(   9) = (   0.0000166   0.1448419   0.6020343  )
        10           S   tau(  10) = (   0.1250561   0.0722903   0.3669179  )
        11           S   tau(  11) = (   0.1250140   0.0722444   0.1181576  )
        12           S   tau(  12) = (  -0.0013476   0.1442175   0.8515296  )
        13           Mo  tau(  13) = (  -0.1249989   0.3608437  -0.7272732  )
        14           Mo  tau(  14) = (   0.0000030   0.2886752  -0.2424042  )
        15           S   tau(  15) = (  -0.1249977   0.3608450  -0.3667802  )
        16           S   tau(  16) = (   0.0000012   0.2886747  -0.6030489  )
        17           S   tau(  17) = (   0.0000012   0.2886748  -0.8514963  )
        18           S   tau(  18) = (  -0.1249977   0.3608454  -0.1180274  )
        19           Mo  tau(  19) = (  -0.1249777   0.3609089   0.2425603  )
        20           Mo  tau(  20) = (  -0.0029637   0.2882853   0.7270120  )
        21           S   tau(  21) = (  -0.1256983   0.3625185   0.6019747  )
        22           S   tau(  22) = (   0.0000591   0.2887797   0.3669668  )
        23           S   tau(  23) = (   0.0000075   0.2887346   0.1181682  )
        24           S   tau(  24) = (  -0.1270233   0.3617098   0.8514678  )
        25           Mo  tau(  25) = (  -0.2499987   0.5773502  -0.7272732  )
        26           Mo  tau(  26) = (  -0.1249977   0.5051839  -0.2424055  )
        27           S   tau(  27) = (  -0.2499981   0.5773518  -0.3667809  )
        28           S   tau(  28) = (  -0.1249986   0.5051812  -0.6030489  )
        29           S   tau(  29) = (  -0.1249986   0.5051813  -0.8514963  )
        30           S   tau(  30) = (  -0.2499979   0.5773512  -0.1180266  )
        31           Mo  tau(  31) = (  -0.2499821   0.5774144   0.2425369  )
        32           Mo  tau(  32) = (  -0.1258229   0.5064885   0.7278520  )
        33           S   tau(  33) = (  -0.2493952   0.5788088   0.6023234  )
        34           S   tau(  34) = (  -0.1249462   0.5052707   0.3669162  )
        35           S   tau(  35) = (  -0.1249880   0.5052329   0.1181602  )
        36           S   tau(  36) = (  -0.2509230   0.5788413   0.8515814  )
        37           Mo  tau(  37) = (  -0.3749985   0.7938567  -0.7272732  )
        38           Mo  tau(  38) = (  -0.2500001   0.7216874  -0.2424031  )
        39           S   tau(  39) = (  -0.3749980   0.7938584  -0.3667800  )
        40           S   tau(  40) = (  -0.2499984   0.7216877  -0.6030489  )
        41           S   tau(  41) = (  -0.2499984   0.7216878  -0.8514963  )
        42           S   tau(  42) = (  -0.3749982   0.7938585  -0.1180264  )
        43           Mo  tau(  43) = (  -0.3749910   0.7939458   0.2425394  )
        44           Mo  tau(  44) = (  -0.2499391   0.7230231   0.7269923  )
        45           S   tau(  45) = (  -0.3746478   0.7955125   0.6023635  )
        46           S   tau(  46) = (  -0.2500018   0.7217675   0.3668983  )
        47           S   tau(  47) = (  -0.2499845   0.7217593   0.1181709  )
        48           S   tau(  48) = (  -0.3753625   0.7942039   0.8516391  )
        49           Mo  tau(  49) = (   0.2500010   0.1443372  -0.7272732  )
        50           Mo  tau(  50) = (   0.3750034   0.0721723  -0.2424032  )
        51           S   tau(  51) = (   0.2500017   0.1443391  -0.3667788  )
        52           S   tau(  52) = (   0.3750010   0.0721682  -0.6030489  )
        53           S   tau(  53) = (   0.3750010   0.0721683  -0.8514963  )
        54           S   tau(  54) = (   0.2500016   0.1443391  -0.1180271  )
        55           Mo  tau(  55) = (   0.2500120   0.1444423   0.2425270  )
        56           Mo  tau(  56) = (   0.3753385   0.0727176   0.7280385  )
        57           S   tau(  57) = (   0.2501061   0.1471948   0.6059873  )
        58           S   tau(  58) = (   0.3749665   0.0722824   0.3669588  )
        59           S   tau(  59) = (   0.3750194   0.0722259   0.1181828  )
        60           S   tau(  60) = (   0.2503224   0.1381707   0.8567863  )
[...]
       181           Mo  tau( 181) = (   0.3750016   0.7938567  -0.7272732  )
       182           Mo  tau( 182) = (   0.5000025   0.7216901  -0.2424039  )
       183           S   tau( 183) = (   0.3750019   0.7938578  -0.3667793  )
       184           S   tau( 184) = (   0.5000016   0.7216877  -0.6030489  )
       185           S   tau( 185) = (   0.5000016   0.7216878  -0.8514963  )
       186           S   tau( 186) = (   0.3750020   0.7938579  -0.1180272  )
       187           Mo  tau( 187) = (   0.3749890   0.7939067   0.2425443  )
       188           Mo  tau( 188) = (   0.5002702   0.7230996   0.7264112  )
       189           S   tau( 189) = (   0.3747820   0.7948530   0.6019718  )
       190           S   tau( 190) = (   0.5000014   0.7217825   0.3669010  )
       191           S   tau( 191) = (   0.5000049   0.7217309   0.1181759  )
       192           S   tau( 192) = (   0.3757788   0.7958654   0.8513800  )
       193           Pd  tau( 193) = (   0.1298567   0.5028633   0.9631584  )
       194           Pd  tau( 194) = (   0.2489715   0.2959876   0.9631435  )
       195           Pd  tau( 195) = (  -0.0029354   0.2882992   0.9719455  )

     DFT-D3 Dispersion Correction (3-body terms):
       Reference C6 values for interpolation:

         atom   Coordination number   C6
         S          0.000           268.01
         S          0.995           261.99
         S          1.990           251.62
         Mo         0.000          1691.79
         Mo         1.942          1004.01
         Mo        11.056           674.22
         Pd         0.000          1217.01
         Pd         1.863           573.90
         Pd         5.710           531.75

       Values used:

         atom   Coordination number  R0_AB[au]  C6      C8
         Mo        10.208            3.547    674.22  77634.20
         Mo        10.221            3.547    674.22  77634.20
         S          3.858            3.128    251.62  12327.25
         S          3.859            3.128    251.62  12327.25
[...]
     atom   14 type  1   force =     0.00000000    0.00000000    0.00000000
     atom   15 type  2   force =     0.00000000    0.00000000    0.00000000
     atom   16 type  2   force =     0.00000000    0.00000000    0.00000000
     atom   17 type  2   force =     0.00000000    0.00000000    0.00000000
     atom   18 type  2   force =     0.00000000    0.00000000    0.00000000
     atom   19 type  1   force =     0.00001131   -0.00001437    0.00001863
     atom   20 type  1   force =    -0.00000737   -0.00000454   -0.00001216
     atom   21 type  2   force =    -0.00000367   -0.00000122   -0.00000006
     atom   22 type  2   force =    -0.00000433   -0.00000334   -0.00001700
     atom   23 type  2   force =    -0.00000308   -0.00000285    0.00000155
     atom   24 type  2   force =    -0.00001225   -0.00000730    0.00000616
     atom   25 type  1   force =     0.00000000    0.00000000    0.00000000
     atom   26 type  1   force =     0.00000000    0.00000000    0.00000000
     atom   27 type  2   force =     0.00000000    0.00000000    0.00000000
     atom   28 type  2   force =     0.00000000    0.00000000    0.00000000
     atom   29 type  2   force =     0.00000000    0.00000000    0.00000000
     atom   30 type  2   force =     0.00000000    0.00000000    0.00000000
     atom   31 type  1   force =     0.00000229   -0.00000216    0.00000230
     atom   32 type  1   force =    -0.00000365   -0.00003294    0.00000824
     atom   33 type  2   force =     0.00000384    0.00000061   -0.00000505
     atom   34 type  2   force =     0.00000071   -0.00001054   -0.00000171
     atom   35 type  2   force =     0.00000627   -0.00000598   -0.00000272
     atom   36 type  2   force =    -0.00000180   -0.00000302    0.00002528
     atom   37 type  1   force =     0.00000000    0.00000000    0.00000000
     atom   38 type  1   force =     0.00000000    0.00000000    0.00000000
     atom   39 type  2   force =     0.00000000    0.00000000    0.00000000
     atom   40 type  2   force =     0.00000000    0.00000000    0.00000000
     atom   41 type  2   force =     0.00000000    0.00000000    0.00000000
     atom   42 type  2   force =     0.00000000    0.00000000    0.00000000
     atom   43 type  1   force =    -0.00001212    0.00001479    0.00000151
     atom   44 type  1   force =    -0.00001795   -0.00000801    0.00003371
     atom   45 type  2   force =     0.00000151    0.00000410   -0.00000401
     atom   46 type  2   force =     0.00000052   -0.00000419    0.00000589
     atom   47 type  2   force =    -0.00000009   -0.00000384   -0.00000995
     atom   48 type  2   force =    -0.00000383    0.00000139    0.00002399
     atom   49 type  1   force =     0.00000000    0.00000000    0.00000000
     atom   50 type  1   force =     0.00000000    0.00000000    0.00000000
     atom   51 type  2   force =     0.00000000    0.00000000    0.00000000
     atom   52 type  2   force =     0.00000000    0.00000000    0.00000000
     atom   53 type  2   force =     0.00000000    0.00000000    0.00000000
     atom   54 type  2   force =     0.00000000    0.00000000    0.00000000
     atom   55 type  1   force =    -0.00001323    0.00000955   -0.00001434
     atom   56 type  1   force =     0.00002545    0.00000409    0.00005180
     atom   57 type  2   force =    -0.00000055   -0.00000410   -0.00000536
     atom   58 type  2   force =     0.00000345   -0.00000228    0.00000029
     atom   59 type  2   force =    -0.00000423   -0.00000288    0.00000142
     atom   60 type  2   force =     0.00001024    0.00000888    0.00002600
[...]
     atom  181 type  1   force =     0.00000000    0.00000000    0.00000000
     atom  182 type  1   force =     0.00000000    0.00000000    0.00000000
     atom  183 type  2   force =     0.00000000    0.00000000    0.00000000
     atom  184 type  2   force =     0.00000000    0.00000000    0.00000000
     atom  185 type  2   force =     0.00000000    0.00000000    0.00000000
     atom  186 type  2   force =     0.00000000    0.00000000    0.00000000
     atom  187 type  1   force =     0.00000767    0.00002463   -0.00001952
     atom  188 type  1   force =    -0.00000966    0.00001111    0.00006015
     atom  189 type  2   force =    -0.00001381    0.00000641    0.00000798
     atom  190 type  2   force =     0.00000173    0.00000208   -0.00000170
     atom  191 type  2   force =    -0.00000056    0.00001006    0.00000186
     atom  192 type  2   force =    -0.00000208    0.00000922    0.00001388
     atom  193 type  3   force =    -0.00000415   -0.00007876    0.00016473
     atom  194 type  3   force =    -0.00007320    0.00004304    0.00015486
     atom  195 type  3   force =     0.00000270    0.00000335    0.00001840

     DFT-D3 dispersion contribution to forces:
     atom    1 type  1   force =     0.00000002    0.00000007    0.00255973
     atom    2 type  1   force =     0.00000000   -0.00000028    0.00000594
     atom    3 type  2   force =    -0.00000000   -0.00000004   -0.00003436
     atom    4 type  2   force =    -0.00000001   -0.00000001    0.00017169
     atom    5 type  2   force =     0.00000000   -0.00000001    0.00441396
     atom    6 type  2   force =    -0.00000029   -0.00000007    0.00009332
     atom    7 type  1   force =    -0.00000784   -0.00001084   -0.00001042
     atom    8 type  1   force =     0.00000045    0.00071906   -0.00168456
     atom    9 type  2   force =     0.00006166    0.00014109    0.00027322
     atom   10 type  2   force =    -0.00000077   -0.00002471    0.00004368
     atom   11 type  2   force =    -0.00000055   -0.00000164   -0.00009395
     atom   12 type  2   force =     0.00055743    0.00069833   -0.00403869
     atom   13 type  1   force =     0.00000008   -0.00000002    0.00255972
     atom   14 type  1   force =    -0.00000012   -0.00000006    0.00000555
     atom   15 type  2   force =     0.00000001   -0.00000000   -0.00003436
     atom   16 type  2   force =     0.00000001    0.00000000    0.00017176
     atom   17 type  2   force =    -0.00000002   -0.00000001    0.00441382
     atom   18 type  2   force =    -0.00000041    0.00000019    0.00009333
     atom   19 type  1   force =    -0.00001327   -0.00000151   -0.00001057
     atom   20 type  1   force =     0.00049346    0.00028495   -0.00158419
     atom   21 type  2   force =     0.00015315   -0.00001798    0.00027320
     atom   22 type  2   force =    -0.00001638   -0.00000916    0.00003304
     atom   23 type  2   force =    -0.00000139   -0.00000110   -0.00009701
     atom   24 type  2   force =     0.00088298    0.00013310   -0.00403848
     atom   25 type  1   force =     0.00000004   -0.00000004    0.00255971
     atom   26 type  1   force =    -0.00000018    0.00000012    0.00000591
     atom   27 type  2   force =     0.00000001    0.00000001   -0.00003428
     atom   28 type  2   force =    -0.00000000    0.00000000    0.00017169
     atom   29 type  2   force =    -0.00000001    0.00000001    0.00441396
     atom   30 type  2   force =    -0.00000003    0.00000027    0.00009345
     atom   31 type  1   force =    -0.00000333    0.00000119    0.00001171
     atom   32 type  1   force =     0.00062240   -0.00035897   -0.00168461
     atom   33 type  2   force =    -0.00000257    0.00000135   -0.00009014
     atom   34 type  2   force =    -0.00002229    0.00001244    0.00004354
     atom   35 type  2   force =    -0.00000141   -0.00000018   -0.00009397
     atom   36 type  2   force =     0.00045004   -0.00026059   -0.00423228
     atom   37 type  1   force =    -0.00000001    0.00000003    0.00255970
     atom   38 type  1   force =     0.00000002   -0.00000003    0.00000626
     atom   39 type  2   force =     0.00000001   -0.00000001   -0.00003428
     atom   40 type  2   force =    -0.00000000   -0.00000001    0.00017167
     atom   41 type  2   force =    -0.00000002    0.00000001    0.00441412
     atom   42 type  2   force =    -0.00000002    0.00000025    0.00009344
     atom   43 type  1   force =    -0.00000063   -0.00000343    0.00001177
     atom   44 type  1   force =     0.00006657    0.00003865   -0.00232673
     atom   45 type  2   force =    -0.00000007   -0.00000385   -0.00009018
     atom   46 type  2   force =    -0.00000327   -0.00000133    0.00005675
     atom   47 type  2   force =    -0.00000034   -0.00000054   -0.00009132
     atom   48 type  2   force =    -0.00000079    0.00051982   -0.00423249
     atom   49 type  1   force =     0.00000000    0.00000006    0.00255976
     atom   50 type  1   force =     0.00000012   -0.00000014    0.00000606
     atom   51 type  2   force =    -0.00000000   -0.00000006   -0.00003436
     atom   52 type  2   force =     0.00000001    0.00000000    0.00017169
     atom   53 type  2   force =    -0.00000000    0.00000002    0.00441400
     atom   54 type  2   force =     0.00000005    0.00000008    0.00009329
     atom   55 type  1   force =     0.00000682   -0.00001095   -0.00001115
     atom   56 type  1   force =    -0.00028869    0.00036891   -0.00201295
     atom   57 type  2   force =    -0.00006449    0.00014185    0.00027577
     atom   58 type  2   force =     0.00000596   -0.00001171    0.00005088
     atom   59 type  2   force =     0.00000051   -0.00000070   -0.00009191
     atom   60 type  2   force =    -0.00055038    0.00069625   -0.00403762
[...]
     atom  181 type  1   force =    -0.00000004    0.00000002    0.00255962
     atom  182 type  1   force =    -0.00000007   -0.00000000    0.00000622
     atom  183 type  2   force =    -0.00000002   -0.00000005   -0.00003427
     atom  184 type  2   force =    -0.00000000   -0.00000001    0.00017169
     atom  185 type  2   force =     0.00000001    0.00000002    0.00441412
     atom  186 type  2   force =    -0.00000022    0.00000037    0.00009326
     atom  187 type  1   force =    -0.00000168    0.00000194    0.00001158
     atom  188 type  1   force =    -0.00006570    0.00003821   -0.00232448
     atom  189 type  2   force =    -0.00000091    0.00000038   -0.00009875
     atom  190 type  2   force =     0.00000338   -0.00000027    0.00005716
     atom  191 type  2   force =     0.00000068   -0.00000091   -0.00009131
     atom  192 type  2   force =    -0.00005622    0.00002765   -0.00423039
     atom  193 type  3   force =    -0.00000153   -0.00025817   -0.00628667
     atom  194 type  3   force =    -0.00022462    0.00012743   -0.00628681
     atom  195 type  3   force =     0.00022594    0.00013021   -0.00628776

     Total force =     0.004416     Total SCF correction =     0.000350
     Energy error            =      3.3E-05 Ry
     Gradient error          =      9.4E-04 Ry/Bohr

     bfgs converged in  33 scf cycles and  32 bfgs steps
     (criteria: energy <  1.0E-04 Ry, force <  1.0E-03 Ry/Bohr)

     End of BFGS Geometry Optimization

     Final energy             =  -33329.5951112889 Ry

     File ./outdir/pwscf.bfgs deleted, as requested
Begin final coordinates

ATOMIC_POSITIONS (angstrom)
Mo            0.0000119917        1.8193638619       -9.1672481230    0   0   0
Mo            1.5756136568        0.9097075315       -3.0554901653    0   0   0
S             0.0000188998        1.8193822938       -4.6232556019    0   0   0
S             1.5756321638        0.9096773839       -7.6014065489    0   0   0
S             1.5756326175        0.9096785128      -10.7330757790    0   0   0
S             0.0000189190        1.8193860094       -1.4877129945    0   0   0
Mo           -0.0007345954        1.8242583040        3.0600852428
Mo            1.5742966606        0.9063453984        9.1761024598
S            -0.0052523149        1.8208143839        7.6094837479
S             1.5745948705        0.9145544935        4.6280442199
S             1.5751367552        0.9147015014        1.4923474105
S            -0.0090731307        1.7695742940       10.7709883966
Mo           -1.5756053507        4.5484193819       -9.1672481230    0   0   0
Mo            0.0000378379        3.6387394919       -3.0554952701    0   0   0
S            -1.5755913433        4.5484363582       -4.6232494962    0   0   0
S             0.0000148214        3.6387329039       -7.6014065489    0   0   0
S             0.0000152751        3.6387340328      -10.7330757790    0   0   0
S            -1.5755906502        4.5484413613       -1.4877305502    0   0   0
Mo           -1.5762381682        4.5531708473        3.0600643511
Mo           -0.0320086579        3.6317032704        9.1728516442
S            -1.5867955192        4.5604873189        7.6094579597
S            -0.0010973299        3.6433664111        4.6286551122
S             0.0000505354        3.6438489028        1.4926451178
S            -1.6331642467        4.5829917327       10.7707949161
Mo           -3.1512226931        7.2774749019       -9.1672481230    0   0   0
Mo           -1.5755910988        6.3678216792       -3.0555115988    0   0   0
S            -3.1512162438        7.2774954350       -4.6232578178    0   0   0
S            -1.5756025210        6.3677884239       -7.6014065489    0   0   0
S            -1.5756020673        6.3677895528      -10.7330757790    0   0   0
S            -3.1512127704        7.2774877076       -1.4877200710    0   0   0
Mo           -3.1518916506        7.2821773691        3.0599710254
Mo           -1.5892714281        6.3857458473        9.1759761690
S            -3.1536898164        7.2890060832        7.5965417949
S            -1.5764427519        6.3723736347        4.6280289394
S            -1.5759157468        6.3725553322        1.4923538690
S            -3.1625829879        7.2950693484       10.7409216729
Mo           -4.7268400355       10.0065304219       -9.1672481230    0   0   0
Mo           -3.1512405618        9.0968403586       -3.0554816746    0   0   0
S            -4.7268341792       10.0065523623       -4.6232463762    0   0   0
S            -3.1512198634        9.0968439439       -7.6014065489    0   0   0
S            -3.1512194097        9.0968450728      -10.7330757790    0   0   0
S            -4.7268370797       10.0065537885       -1.4877176751    0   0   0
Mo           -4.7276010797       10.0114245723        3.0599644441
Mo           -3.1531072552        9.1071653531        9.1672772322
S            -4.7276212384       10.0161427001        7.5966066562
S            -3.1520082353        9.1016502283        4.6275933707
S            -3.1522205371        9.1013611050        1.4919849454
S            -4.7268196401       10.0053315882       10.7409976087
Mo            3.1512517547        1.8193638619       -9.1672481230    0   0   0
Mo            4.7269020221        0.9097289540       -3.0554823951    0   0   0
S             3.1512612351        1.8193882564       -4.6232320683    0   0   0
S             4.7268719268        0.9096773839       -7.6014065489    0   0   0
S             4.7268723805        0.9096785128      -10.7330757790    0   0   0
S             3.1512592485        1.8193890201       -1.4877261251    0   0   0
Mo            3.1504947229        1.8241930917        3.0606921449
Mo            4.7292192828        0.9097058939        9.1727409691
S             3.1548265067        1.8208571600        7.6119235195
S             4.7265906725        0.9142620524        4.6277528527
S             4.7255085684        0.9143774772        1.4922081752
S             3.1564061031        1.7725250108       10.7721971777
[...]
Mo            4.7268792535       10.0065304219       -9.1672481230    0   0   0
Mo            6.3025111524        9.0968738021       -3.0554915260    0   0   0
S             4.7268840634       10.0065452125       -4.6232380477    0   0   0
S             6.3024994256        9.0968439439       -7.6014065489    0   0   0
S             6.3024998793        9.0968450728      -10.7330757790    0   0   0
S             4.7268847312       10.0065459141       -1.4877283294    0   0   0
Mo            4.7259835407       10.0114313934        3.0599861006
Mo            6.3028921779        9.1098622418        9.1674518510
S             4.7267793602       10.0172663984        7.5950278032
S             6.3016625625        9.1014992416        4.6273161719
S             6.3016739355        9.1018257975        1.4920950733
S             4.7283040176       10.0167464698       10.7425706490
Pd            1.5836394760        6.2402316477       12.2139290364
Pd            3.0357781370        3.7269197809       12.2145164285
Pd            0.1273811646        3.7242717326       12.2183697411
End final coordinates

     Writing all to output data dir ./outdir/pwscf.save/

     General routines

     Parallel routines

   This run was terminated on:  14: 4:27   8Nov2023

   JOB DONE.
Application 11384871 resources: utime ~1803306s, stime ~15630s, Rss ~3517948, inblocks ~0, outblocks ~51863256