     Program PWSCF v.7.2 starts on  2Sep2023 at  7: 5:14

     Waiting for input...
     Reading input from standard input
Warning: card &CELL ignored
Warning: card / ignored

     Current dimensions of program PWSCF are:
     Max number of different atomic species (ntypx) = 10
     Max number of k-points (npk) =  40000
     Max angular momentum in pseudopotentials (lmaxx) =  4
     file Mo.pbe-spn-kjpaw_psl.1.0.0.UPF: wavefunction(s)  4S 4D renormalized
     file S.pbe-n-kjpaw_psl.1.0.0.UPF: wavefunction(s)  3S 3P renormalized
     file Pd.pbe-spn-kjpaw_psl.1.0.0.UPF: wavefunction(s)  4S 5S 4D renormalized
     file H.pbe-kjpaw_psl.1.0.0.UPF: wavefunction(s)  1S renormalized

     R & G space division:  proc/nbgrp/npool/nimage =      36
     Subspace diagonalization in iterative solution of the eigenvalue problem:
     one sub-group per band group will be used

     Using Slab Decomposition

     bravais-lattice index     =            0
     lattice parameter (alat)  =      23.8199  a.u.
     unit-cell volume          =   33861.0370 (a.u.)^3
     number of atoms/cell      =          194
     number of atomic types    =            4
     number of electrons       =      1683.00
     number of Kohn-Sham states=         1010
     kinetic-energy cutoff     =      77.0000  Ry
     charge density cutoff     =     539.0000  Ry
     scf convergence threshold =      1.0E-06
     mixing beta               =       0.2000
     number of iterations used =            8  plain     mixing
     energy convergence thresh.=      1.0E-04
     force convergence thresh. =      1.0E-03
     Exchange-correlation= SLA  PW   PBX  PBC
                           (   1   4   3   4   0   0   0)
     nstep                     =         1000

     Effective Screening Medium Method
     Boundary Conditions: Vacuum-Slab-Vacuum
     total charge in unit cell        =   0.0000
     grid points for fit at edges     =        4

     celldm(1)=  23.819920  celldm(2)=   0.000000  celldm(3)=   0.000000
     celldm(4)=   0.000000  celldm(5)=   0.000000  celldm(6)=   0.000000

     crystal axes: (cart. coord. in units of alat)
               a(1) = (   1.000000   0.000000   0.000000 )
               a(2) = (  -0.499999   0.866026   0.000000 )
               a(3) = (   0.000000   0.000000   2.893000 )

     reciprocal axes: (cart. coord. in units 2 pi/alat)
               b(1) = (  1.000000  0.577349  0.000000 )
               b(2) = (  0.000000  1.154700  0.000000 )
               b(3) = (  0.000000  0.000000  0.345662 )

     PseudoPot. # 1 for Mo read from file:
     ./pseudo/Mo.pbe-spn-kjpaw_psl.1.0.0.UPF
     MD5 check sum: 317bf72632116215fd98f72de1686f13
     Pseudo is Projector augmented-wave + core cor, Zval = 14.0
     Generated using 'atomic' code by A. Dal Corso  v.7.2
     Shape of augmentation charge: PSQ
     Using radial grid of 1229 points,  6 beta functions with:
                l(1) =   0
                l(2) =   0
                l(3) =   1
                l(4) =   1
                l(5) =   2
                l(6) =   2
     Q(r) pseudized with 0 coefficients

     PseudoPot. # 2 for S  read from file:
     ./pseudo/S.pbe-n-kjpaw_psl.1.0.0.UPF
     MD5 check sum: 8b7b5302570d38d5e87fed6a1065abda
     Pseudo is Projector augmented-wave + core cor, Zval =  6.0
     Generated using 'atomic' code by A. Dal Corso  v.7.2
     Shape of augmentation charge: PSQ
     Using radial grid of 1151 points,  6 beta functions with:
                l(1) =   0
                l(2) =   0
                l(3) =   1
                l(4) =   1
                l(5) =   2
                l(6) =   2
     Q(r) pseudized with 0 coefficients

     PseudoPot. # 3 for Pd read from file:
     ./pseudo/Pd.pbe-spn-kjpaw_psl.1.0.0.UPF
     MD5 check sum: a60571a671f2502b8a6a4569d20a6edb
     Pseudo is Projector augmented-wave + core cor, Zval = 18.0
     Generated using 'atomic' code by A. Dal Corso  v.7.2
     Shape of augmentation charge: PSQ
     Using radial grid of 1235 points,  6 beta functions with:
                l(1) =   0
                l(2) =   0
                l(3) =   1
                l(4) =   1
                l(5) =   2
                l(6) =   2
     Q(r) pseudized with 0 coefficients

     PseudoPot. # 4 for H  read from file:
     ./pseudo/H.pbe-kjpaw_psl.1.0.0.UPF
     MD5 check sum: b3cb3c48ee3b58cc53e4d592112d0ca6
     Pseudo is Projector augmented-wave, Zval =  1.0
     Generated using 'atomic' code by A. Dal Corso  v.7.2
     Shape of augmentation charge: PSQ
     Using radial grid of  929 points,  2 beta functions with:
                l(1) =   0
                l(2) =   0
     Q(r) pseudized with 0 coefficients

     atomic species   valence    mass     pseudopotential
        Mo            14.00    95.95000     Mo( 1.00)
        S              6.00    32.06000     S ( 1.00)
        Pd            18.00   106.42000     Pd( 1.00)
        H              1.00     1.00800     H ( 1.00)

     No symmetry found

   Cartesian axes

     site n.     atom                  positions (alat units)
         1           Mo  tau(   1) = (   0.0000010   0.1443372  -0.7272732  )
         2           Mo  tau(   2) = (   0.1249995   0.0721706  -0.2424038  )
         3           S   tau(   3) = (   0.0000015   0.1443386  -0.3667807  )
         4           S   tau(   4) = (   0.1250010   0.0721682  -0.6030489  )
         5           S   tau(   5) = (   0.1250010   0.0721683  -0.8514963  )
         6           S   tau(   6) = (   0.0000015   0.1443389  -0.1180260  )
         7           Mo  tau(   7) = (   0.0000007   0.1443589   0.2424205  )
         8           Mo  tau(   8) = (   0.1250041   0.0720322   0.7266168  )
         9           S   tau(   9) = (   0.0000742   0.1444871   0.6020949  )
        10           S   tau(  10) = (   0.1250024   0.0721701   0.3667478  )
        11           S   tau(  11) = (   0.1250035   0.0721876   0.1180348  )
        12           S   tau(  12) = (  -0.0004118   0.1430864   0.8514340  )
        13           Mo  tau(  13) = (  -0.1249989   0.3608437  -0.7272732  )
        14           Mo  tau(  14) = (   0.0000030   0.2886752  -0.2424042  )
        15           S   tau(  15) = (  -0.1249977   0.3608450  -0.3667802  )
        16           S   tau(  16) = (   0.0000012   0.2886747  -0.6030489  )
        17           S   tau(  17) = (   0.0000012   0.2886748  -0.8514963  )
        18           S   tau(  18) = (  -0.1249977   0.3608454  -0.1180274  )
        19           Mo  tau(  19) = (  -0.1249729   0.3608584   0.2424608  )
        20           Mo  tau(  20) = (  -0.0007193   0.2876626   0.7275440  )
        21           S   tau(  21) = (  -0.1251115   0.3607789   0.6027257  )
        22           S   tau(  22) = (   0.0000621   0.2887099   0.3668377  )
        23           S   tau(  23) = (  -0.0000096   0.2886902   0.1180527  )
        24           S   tau(  24) = (  -0.1254673   0.3605734   0.8517408  )
        25           Mo  tau(  25) = (  -0.2499987   0.5773502  -0.7272732  )
        26           Mo  tau(  26) = (  -0.1249977   0.5051839  -0.2424055  )
        27           S   tau(  27) = (  -0.2499981   0.5773518  -0.3667809  )
        28           S   tau(  28) = (  -0.1249986   0.5051812  -0.6030489  )
        29           S   tau(  29) = (  -0.1249986   0.5051813  -0.8514963  )
        30           S   tau(  30) = (  -0.2499979   0.5773512  -0.1180266  )
        31           Mo  tau(  31) = (  -0.2499795   0.5773389   0.2424205  )
        32           Mo  tau(  32) = (  -0.1262356   0.5050639   0.7275441  )
        33           S   tau(  33) = (  -0.2498323   0.5773390   0.6020948  )
        34           S   tau(  34) = (  -0.1249376   0.5052159   0.3668377  )
        35           S   tau(  35) = (  -0.1249905   0.5051638   0.1180531  )
        36           S   tau(  36) = (  -0.2512883   0.5776183   0.8514340  )
        37           Mo  tau(  37) = (  -0.3749985   0.7938567  -0.7272732  )
        38           Mo  tau(  38) = (  -0.2500001   0.7216874  -0.2424031  )
        39           S   tau(  39) = (  -0.3749980   0.7938584  -0.3667800  )
        40           S   tau(  40) = (  -0.2499984   0.7216877  -0.6030489  )
        41           S   tau(  41) = (  -0.2499984   0.7216878  -0.8514963  )
        42           S   tau(  42) = (  -0.3749982   0.7938585  -0.1180264  )
        43           Mo  tau(  43) = (  -0.3749962   0.7938568   0.2423838  )
        44           Mo  tau(  44) = (  -0.2501148   0.7217588   0.7266170  )
        45           S   tau(  45) = (  -0.3749945   0.7938590   0.6021274  )
        46           S   tau(  46) = (  -0.2499958   0.7216877   0.3667488  )
        47           S   tau(  47) = (  -0.2499810   0.7216794   0.1180323  )
        48           S   tau(  48) = (  -0.3749953   0.7938585   0.8511588  )
        49           Mo  tau(  49) = (   0.2500010   0.1443372  -0.7272732  )
        50           Mo  tau(  50) = (   0.3750034   0.0721723  -0.2424032  )
        51           S   tau(  51) = (   0.2500017   0.1443391  -0.3667788  )
        52           S   tau(  52) = (   0.3750010   0.0721682  -0.6030489  )
        53           S   tau(  53) = (   0.3750010   0.0721683  -0.8514963  )
        54           S   tau(  54) = (   0.2500016   0.1443391  -0.1180271  )
        55           Mo  tau(  55) = (   0.2500054   0.1443594   0.2424211  )
        56           Mo  tau(  56) = (   0.3749279   0.0721263   0.7263991  )
        57           S   tau(  57) = (   0.2499344   0.1444864   0.6020948  )
        58           S   tau(  58) = (   0.3750316   0.0721860   0.3667597  )
        59           S   tau(  59) = (   0.3749924   0.0721644   0.1180346  )
        60           S   tau(  60) = (   0.2504199   0.1430865   0.8514340  )
[...]
       180           S   tau( 180) = (   0.5012979   0.5776190   0.8514332  )
       181           Mo  tau( 181) = (   0.3750016   0.7938567  -0.7272732  )
       182           Mo  tau( 182) = (   0.5000025   0.7216901  -0.2424039  )
       183           S   tau( 183) = (   0.3750019   0.7938578  -0.3667793  )
       184           S   tau( 184) = (   0.5000016   0.7216877  -0.6030489  )
       185           S   tau( 185) = (   0.5000016   0.7216878  -0.8514963  )
       186           S   tau( 186) = (   0.3750020   0.7938579  -0.1180272  )
       187           Mo  tau( 187) = (   0.3749848   0.7938487   0.2424206  )
       188           Mo  tau( 188) = (   0.5001249   0.7217591   0.7266160  )
       189           S   tau( 189) = (   0.3749125   0.7937251   0.6020942  )
       190           S   tau( 190) = (   0.5000021   0.7216868   0.3667472  )
       191           S   tau( 191) = (   0.4999874   0.7216780   0.1180346  )
       192           S   tau( 192) = (   0.3758826   0.7948451   0.8514332  )
       193           Pd  tau( 193) = (   0.1250063   0.5051842   0.9601361  )
       194           H   tau( 194) = (   0.2502587   0.3562487   0.9489519  )

     DFT-D3 Dispersion Correction (3-body terms):
       Reference C6 values for interpolation:

         atom   Coordination number   C6
         H          0.912             6.05
         H          0.000            15.18
         S          0.000           268.01
[...]
     atom   15 type  2   force =     0.00000000    0.00000000    0.00000000
     atom   16 type  2   force =     0.00000000    0.00000000    0.00000000
     atom   17 type  2   force =     0.00000000    0.00000000    0.00000000
     atom   18 type  2   force =     0.00000000    0.00000000    0.00000000
     atom   19 type  1   force =    -0.00000776    0.00003406    0.00000195
     atom   20 type  1   force =    -0.00001446   -0.00001209   -0.00002204
     atom   21 type  2   force =     0.00001045    0.00000311   -0.00000673
     atom   22 type  2   force =     0.00000279    0.00000854    0.00002617
     atom   23 type  2   force =     0.00000181    0.00000332   -0.00001616
     atom   24 type  2   force =    -0.00000398   -0.00000577   -0.00000998
     atom   25 type  1   force =     0.00000000    0.00000000    0.00000000
     atom   26 type  1   force =     0.00000000    0.00000000    0.00000000
     atom   27 type  2   force =     0.00000000    0.00000000    0.00000000
     atom   28 type  2   force =     0.00000000    0.00000000    0.00000000
     atom   29 type  2   force =     0.00000000    0.00000000    0.00000000
     atom   30 type  2   force =     0.00000000    0.00000000    0.00000000
     atom   31 type  1   force =    -0.00001441    0.00003144   -0.00001011
     atom   32 type  1   force =     0.00003671   -0.00001374   -0.00003652
     atom   33 type  2   force =    -0.00000440   -0.00001322   -0.00000961
     atom   34 type  2   force =     0.00000711    0.00001859    0.00000353
     atom   35 type  2   force =    -0.00000123    0.00002368    0.00000024
     atom   36 type  2   force =    -0.00001937   -0.00000441   -0.00000690
     atom   37 type  1   force =     0.00000000    0.00000000    0.00000000
     atom   38 type  1   force =     0.00000000    0.00000000    0.00000000
     atom   39 type  2   force =     0.00000000    0.00000000    0.00000000
     atom   40 type  2   force =     0.00000000    0.00000000    0.00000000
     atom   41 type  2   force =     0.00000000    0.00000000    0.00000000
     atom   42 type  2   force =     0.00000000    0.00000000    0.00000000
     atom   43 type  1   force =     0.00000246   -0.00004094   -0.00000516
     atom   44 type  1   force =     0.00000603    0.00003325   -0.00003924
     atom   45 type  2   force =    -0.00000857   -0.00000576   -0.00001778
     atom   46 type  2   force =     0.00000357   -0.00000751   -0.00001835
     atom   47 type  2   force =     0.00000142   -0.00000080    0.00000857
     atom   48 type  2   force =    -0.00000572   -0.00000665   -0.00000061
     atom   49 type  1   force =     0.00000000    0.00000000    0.00000000
     atom   50 type  1   force =     0.00000000    0.00000000    0.00000000
     atom   51 type  2   force =     0.00000000    0.00000000    0.00000000
     atom   52 type  2   force =     0.00000000    0.00000000    0.00000000
     atom   53 type  2   force =     0.00000000    0.00000000    0.00000000
     atom   54 type  2   force =     0.00000000    0.00000000    0.00000000
     atom   55 type  1   force =     0.00003535   -0.00002766   -0.00001455
     atom   56 type  1   force =     0.00001836    0.00001349   -0.00004264
     atom   57 type  2   force =     0.00000445    0.00001217   -0.00001422
     atom   58 type  2   force =     0.00001063   -0.00000874   -0.00000859
     atom   59 type  2   force =     0.00001080   -0.00000946    0.00000057
     atom   60 type  2   force =     0.00001050    0.00000327   -0.00000038
[...]
     atom  180 type  2   force =    -0.00001391   -0.00000317   -0.00002280
     atom  181 type  1   force =     0.00000000    0.00000000    0.00000000
     atom  182 type  1   force =     0.00000000    0.00000000    0.00000000
     atom  183 type  2   force =     0.00000000    0.00000000    0.00000000
     atom  184 type  2   force =     0.00000000    0.00000000    0.00000000
     atom  185 type  2   force =     0.00000000    0.00000000    0.00000000
     atom  186 type  2   force =     0.00000000    0.00000000    0.00000000
     atom  187 type  1   force =    -0.00002185   -0.00005258   -0.00000461
     atom  188 type  1   force =    -0.00000327   -0.00003814   -0.00004836
     atom  189 type  2   force =    -0.00002126   -0.00002028    0.00000223
     atom  190 type  2   force =    -0.00000987   -0.00001271   -0.00001475
     atom  191 type  2   force =    -0.00000619   -0.00001200    0.00001054
     atom  192 type  2   force =    -0.00000974   -0.00001774   -0.00001910
     atom  193 type  3   force =     0.00012877   -0.00003858   -0.00007659
     atom  194 type  4   force =     0.00000094   -0.00000116    0.00000239

     DFT-D3 dispersion contribution to forces:
     atom    1 type  1   force =     0.00000000    0.00000004    0.00255981
     atom    2 type  1   force =    -0.00000001    0.00000023    0.00003262
     atom    3 type  2   force =     0.00000001   -0.00000000   -0.00003111
     atom    4 type  2   force =    -0.00000001   -0.00000000    0.00017183
     atom    5 type  2   force =     0.00000001   -0.00000000    0.00441517
     atom    6 type  2   force =    -0.00000003   -0.00000001    0.00010832
     atom    7 type  1   force =    -0.00000630   -0.00000829   -0.00001126
     atom    8 type  1   force =     0.00000194    0.00009101   -0.00246815
     atom    9 type  2   force =    -0.00000389    0.00000053   -0.00013797
     atom   10 type  2   force =    -0.00000322   -0.00001852    0.00003658
     atom   11 type  2   force =    -0.00000023    0.00000010   -0.00010439
     atom   12 type  2   force =     0.00009960    0.00027817   -0.00430162
     atom   13 type  1   force =     0.00000003    0.00000002    0.00255986
     atom   14 type  1   force =     0.00000015    0.00000041    0.00003307
     atom   15 type  2   force =     0.00000003    0.00000001   -0.00003103
     atom   16 type  2   force =     0.00000001    0.00000001    0.00017186
     atom   17 type  2   force =     0.00000001    0.00000001    0.00441507
     atom   18 type  2   force =     0.00000037    0.00000011    0.00010846
     atom   19 type  1   force =    -0.00001180   -0.00000819   -0.00002212
     atom   20 type  1   force =     0.00017732    0.00030076   -0.00214912
     atom   21 type  2   force =     0.00002153    0.00000502   -0.00009593
     atom   22 type  2   force =    -0.00000664   -0.00001995    0.00004000
     atom   23 type  2   force =     0.00000028    0.00000033   -0.00010711
     atom   24 type  2   force =     0.00049311    0.00028136   -0.00417346
     atom   25 type  1   force =     0.00000003   -0.00000002    0.00255981
     atom   26 type  1   force =     0.00000033    0.00000007    0.00003318
     atom   27 type  2   force =     0.00000002    0.00000000   -0.00003110
     atom   28 type  2   force =     0.00000001    0.00000000    0.00017185
     atom   29 type  2   force =     0.00000000   -0.00000001    0.00441510
     atom   30 type  2   force =     0.00000018   -0.00000031    0.00010843
     atom   31 type  1   force =    -0.00000867   -0.00000073   -0.00001676
     atom   32 type  1   force =     0.00035390   -0.00001139   -0.00217340
     atom   33 type  2   force =    -0.00000569    0.00000721   -0.00013954
     atom   34 type  2   force =    -0.00001439    0.00000057    0.00003914
     atom   35 type  2   force =     0.00000025    0.00000077   -0.00010761
     atom   36 type  2   force =     0.00026435   -0.00005115   -0.00431824
     atom   37 type  1   force =    -0.00000001    0.00000000    0.00255985
     atom   38 type  1   force =     0.00000014   -0.00000000    0.00003274
     atom   39 type  2   force =     0.00000001    0.00000002   -0.00003111
     atom   40 type  2   force =    -0.00000001    0.00000001    0.00017182
     atom   41 type  2   force =    -0.00000003    0.00000002    0.00441519
     atom   42 type  2   force =    -0.00000005   -0.00000030    0.00010834
     atom   43 type  1   force =    -0.00000289    0.00000130   -0.00000440
     atom   44 type  1   force =     0.00007151   -0.00004170   -0.00247879
     atom   45 type  2   force =    -0.00000631    0.00000555   -0.00016488
     atom   46 type  2   force =    -0.00001272    0.00000762    0.00003516
     atom   47 type  2   force =    -0.00000037    0.00000036   -0.00010489
     atom   48 type  2   force =     0.00000014   -0.00000254   -0.00440474
     atom   49 type  1   force =     0.00000001    0.00000003    0.00255983
     atom   50 type  1   force =     0.00000000    0.00000005    0.00003260
     atom   51 type  2   force =    -0.00000003   -0.00000002   -0.00003112
     atom   52 type  2   force =     0.00000001    0.00000001    0.00017185
     atom   53 type  2   force =     0.00000000    0.00000001    0.00441516
     atom   54 type  2   force =    -0.00000023   -0.00000006    0.00010836
     atom   55 type  1   force =     0.00000264   -0.00000744   -0.00001582
     atom   56 type  1   force =    -0.00000468   -0.00000117   -0.00248980
     atom   57 type  2   force =    -0.00000855   -0.00000750   -0.00013988
     atom   58 type  2   force =     0.00000339   -0.00000343    0.00004370
     atom   59 type  2   force =    -0.00000042   -0.00000002   -0.00010427
     atom   60 type  2   force =    -0.00009771    0.00031556   -0.00428920
[...]
     atom  180 type  2   force =    -0.00032913   -0.00007232   -0.00428747
     atom  181 type  1   force =    -0.00000004   -0.00000003    0.00255982
     atom  182 type  1   force =    -0.00000010    0.00000005    0.00003259
     atom  183 type  2   force =    -0.00000002   -0.00000002   -0.00003112
     atom  184 type  2   force =     0.00000000    0.00000001    0.00017184
     atom  185 type  2   force =    -0.00000000   -0.00000000    0.00441518
     atom  186 type  2   force =    -0.00000016   -0.00000040    0.00010833
     atom  187 type  1   force =     0.00000345    0.00000875   -0.00000946
     atom  188 type  1   force =    -0.00008392   -0.00005114   -0.00246596
     atom  189 type  2   force =    -0.00000639    0.00000048   -0.00013482
     atom  190 type  2   force =     0.00001263    0.00001013    0.00003700
     atom  191 type  2   force =     0.00000036    0.00000062   -0.00010428
     atom  192 type  2   force =    -0.00019247   -0.00023359   -0.00429562
     atom  193 type  3   force =    -0.00005537    0.00003222   -0.00639028
     atom  194 type  4   force =     0.00005603   -0.00003473   -0.00091452

     Total force =     0.003159     Total SCF correction =     0.000341
     SCF correction compared to forces is large: reduce conv_thr to get better values
     Energy error            =      2.2E-05 Ry
     Gradient error          =      9.8E-04 Ry/Bohr

     bfgs converged in  47 scf cycles and  46 bfgs steps
     (criteria: energy <  1.0E-04 Ry, force <  1.0E-03 Ry/Bohr)

     End of BFGS Geometry Optimization

     Final energy             =  -32306.7868608916 Ry

     File ./outdir/pwscf.bfgs deleted, as requested
Begin final coordinates

ATOMIC_POSITIONS (angstrom)
Mo            0.0000119917        1.8193638619       -9.1672481230    0   0   0
Mo            1.5756136568        0.9097075315       -3.0554901653    0   0   0
S             0.0000188998        1.8193822938       -4.6232556019    0   0   0
S             1.5756321638        0.9096773839       -7.6014065489    0   0   0
S             1.5756326175        0.9096785128      -10.7330757790    0   0   0
S             0.0000189190        1.8193860094       -1.4877129945    0   0   0
Mo           -0.0008968730        1.8149315876        3.0467249767
Mo            1.5904131038        0.8841199745        9.1418006937
S             0.0145492253        1.7966237152        7.5722472513
S             1.5747415153        0.9051278490        4.6141060480
S             1.5746604870        0.9052205398        1.4792870707
S             0.0096967013        1.7778324441       10.7143570872
Mo           -1.5756053507        4.5484193819       -9.1672481230    0   0   0
Mo            0.0000378379        3.6387394919       -3.0554952701    0   0   0
S            -1.5755913433        4.5484363582       -4.6232494962    0   0   0
S             0.0000148214        3.6387329039       -7.6014065489    0   0   0
S             0.0000152751        3.6387340328      -10.7330757790    0   0   0
S            -1.5755906502        4.5484413613       -1.4877305502    0   0   0
Mo           -1.5763107615        4.5441609697        3.0469541441
Mo           -0.0004835921        3.6028713244        9.1493617144
S            -1.5642839272        4.5271510314        7.5807020898
S            -0.0003659805        3.6344194648        4.6146347889
S            -0.0011803707        3.6343735463        1.4790208964
S            -1.5703315795        4.5147463676       10.7245011406
Mo           -3.1512226931        7.2774749019       -9.1672481230    0   0   0
Mo           -1.5755910988        6.3678216792       -3.0555115988    0   0   0
S            -3.1512162438        7.2774954350       -4.6232578178    0   0   0
S            -1.5756025210        6.3677884239       -7.6014065489    0   0   0
S            -1.5756020673        6.3677895528      -10.7330757790    0   0   0
S            -3.1512127704        7.2774877076       -1.4877200710    0   0   0
Mo           -3.1520003375        7.2728165421        3.0468308623
Mo           -1.5689540238        6.3371810751        9.1617283379
S            -3.1303145295        7.2520448472        7.5795033893
S            -1.5756402579        6.3635727570        4.6144986253
S            -1.5768388751        6.3633674333        1.4788909883
S            -3.1507133419        7.2570086642       10.7185962381
Mo           -4.7268400355       10.0065304219       -9.1672481230    0   0   0
Mo           -3.1512405618        9.0968403586       -3.0554816746    0   0   0
S            -4.7268341792       10.0065523623       -4.6232463762    0   0   0
S            -3.1512198634        9.0968439439       -7.6014065489    0   0   0
S            -3.1512194097        9.0968450728      -10.7330757790    0   0   0
S            -4.7268370797       10.0065537885       -1.4877176751    0   0   0
Mo           -4.7276669043       10.0019074225        3.0469140027
Mo           -3.1346466200        9.0736163854        9.1449634289
S            -4.7095850897        9.9807063554        7.5736689489
S            -3.1517619977        9.0919317082        4.6142752418
S            -3.1521460888        9.0924400567        1.4794151911
S            -4.7113787401        9.9825750729       10.7116859850
Mo            3.1512517547        1.8193638619       -9.1672481230    0   0   0
Mo            4.7269020221        0.9097289540       -3.0554823951    0   0   0
S             3.1512612351        1.8193882564       -4.6232320683    0   0   0
S             4.7268719268        0.9096773839       -7.6014065489    0   0   0
S             4.7268723805        0.9096785128      -10.7330757790    0   0   0
S             3.1512592485        1.8193890201       -1.4877261251    0   0   0
Mo            3.1502245242        1.8150525678        3.0469720114
Mo            4.7418336475        0.8877444551        9.1421807737
S             3.1652799233        1.8029089942        7.5766721934
S             4.7259719704        0.9050204660        4.6143812931
S             4.7259219444        0.9053314360        1.4795093394
S             3.1681205670        1.7762724039       10.7194096438
[...]
S             6.3329655375        7.2620011059       10.7211797869
Mo            4.7268792535       10.0065304219       -9.1672481230    0   0   0
Mo            6.3025111524        9.0968738021       -3.0554915260    0   0   0
S             4.7268840634       10.0065452125       -4.6232380477    0   0   0
S             6.3024994256        9.0968439439       -7.6014065489    0   0   0
S             6.3024998793        9.0968450728      -10.7330757790    0   0   0
S             4.7268847312       10.0065459141       -1.4877283294    0   0   0
Mo            4.7259208813       10.0018048917        3.0471725895
Mo            6.3180075927        9.0741201493        9.1426094607
S             4.7416383163        9.9821813348        7.5704272735
S             6.3018103137        9.0918752001        4.6142690544
S             6.3014384305        9.0922998973        1.4794992142
S             4.7508925318        9.9948292801       10.7126433216
Pd            1.6543100330        6.3246190527       12.1820308271
H             2.5001091519        5.8800886201       13.4514490540
End final coordinates

     Writing all to output data dir ./outdir/pwscf.save/

     General routines

     Parallel routines

   This run was terminated on:   1:53:11   4Sep2023

   JOB DONE.
Application 11123145 resources: utime ~5487359s, stime ~56197s, Rss ~3507604, inblocks ~0, outblocks ~57019168