     Program PWSCF v.7.2 starts on 10Aug2023 at 23:34:20

     Waiting for input...
     Reading input from standard input
Warning: card &CELL ignored
Warning: card / ignored

     Current dimensions of program PWSCF are:
     Max number of different atomic species (ntypx) = 10
     Max number of k-points (npk) =  40000
     Max angular momentum in pseudopotentials (lmaxx) =  4
     file Mo.pbe-spn-kjpaw_psl.1.0.0.UPF: wavefunction(s)  4S 4D renormalized
     file S.pbe-n-kjpaw_psl.1.0.0.UPF: wavefunction(s)  3S 3P renormalized
     file Pd.pbe-spn-kjpaw_psl.1.0.0.UPF: wavefunction(s)  4S 5S 4D renormalized

     R & G space division:  proc/nbgrp/npool/nimage =      36
     Subspace diagonalization in iterative solution of the eigenvalue problem:
     one sub-group per band group will be used

     Using Slab Decomposition

     bravais-lattice index     =            0
     lattice parameter (alat)  =      23.8395  a.u.
     unit-cell volume          =   28182.8498 (a.u.)^3
     number of atoms/cell      =          145
     number of atomic types    =            3
     number of electrons       =      1266.00
     number of Kohn-Sham states=          760
     kinetic-energy cutoff     =      77.0000  Ry
     charge density cutoff     =     539.0000  Ry
     scf convergence threshold =      1.0E-06
     mixing beta               =       0.2000
     number of iterations used =            8  plain     mixing
     energy convergence thresh.=      1.0E-04
     force convergence thresh. =      1.0E-03
     Exchange-correlation= SLA  PW   PBX  PBC
                           (   1   4   3   4   0   0   0)
     nstep                     =         1000

     Effective Screening Medium Method
     Boundary Conditions: Vacuum-Slab-Vacuum
     total charge in unit cell        =   0.0000
     grid points for fit at edges     =        4

     celldm(1)=  23.839504  celldm(2)=   0.000000  celldm(3)=   0.000000
     celldm(4)=   0.000000  celldm(5)=   0.000000  celldm(6)=   0.000000

     crystal axes: (cart. coord. in units of alat)
               a(1) = (   1.000000   0.000000   0.000000 )
               a(2) = (  -0.500001   0.866026   0.000000 )
               a(3) = (   0.000000   0.000000   2.401941 )

     reciprocal axes: (cart. coord. in units 2 pi/alat)
               b(1) = (  1.000000  0.577351  0.000000 )
               b(2) = (  0.000000  1.154700  0.000000 )
               b(3) = (  0.000000  0.000000  0.416330 )

     PseudoPot. # 1 for Mo read from file:
     ./pseudo/Mo.pbe-spn-kjpaw_psl.1.0.0.UPF
     MD5 check sum: 317bf72632116215fd98f72de1686f13
     Pseudo is Projector augmented-wave + core cor, Zval = 14.0
     Generated using 'atomic' code by A. Dal Corso  v.7.2
     Shape of augmentation charge: PSQ
     Using radial grid of 1229 points,  6 beta functions with:
                l(1) =   0
                l(2) =   0
                l(3) =   1
                l(4) =   1
                l(5) =   2
                l(6) =   2
     Q(r) pseudized with 0 coefficients

     PseudoPot. # 2 for S  read from file:
     ./pseudo/S.pbe-n-kjpaw_psl.1.0.0.UPF
     MD5 check sum: 8b7b5302570d38d5e87fed6a1065abda
     Pseudo is Projector augmented-wave + core cor, Zval =  6.0
     Generated using 'atomic' code by A. Dal Corso  v.7.2
     Shape of augmentation charge: PSQ
     Using radial grid of 1151 points,  6 beta functions with:
                l(1) =   0
                l(2) =   0
                l(3) =   1
                l(4) =   1
                l(5) =   2
                l(6) =   2
     Q(r) pseudized with 0 coefficients

     PseudoPot. # 3 for Pd read from file:
     ./pseudo/Pd.pbe-spn-kjpaw_psl.1.0.0.UPF
     MD5 check sum: a60571a671f2502b8a6a4569d20a6edb
     Pseudo is Projector augmented-wave + core cor, Zval = 18.0
     Generated using 'atomic' code by A. Dal Corso  v.7.2
     Shape of augmentation charge: PSQ
     Using radial grid of 1235 points,  6 beta functions with:
                l(1) =   0
                l(2) =   0
                l(3) =   1
                l(4) =   1
                l(5) =   2
                l(6) =   2
     Q(r) pseudized with 0 coefficients

     atomic species   valence    mass     pseudopotential
        Mo            14.00    95.95000     Mo( 1.00)
        S              6.00    32.06000     S ( 1.00)
        Pd            18.00   106.42000     Pd( 1.00)

     No symmetry found

   Cartesian axes

     site n.     atom                  positions (alat units)
         1           Mo  tau(   1) = (   0.1249983   0.2165050   0.4823527  )
         2           Mo  tau(   2) = (   0.1250004   0.0721694  -0.4825273  )
         3           Mo  tau(   3) = (  -0.0000019   0.1443377  -0.0000751  )
         4           S   tau(   4) = (   0.0000004   0.0000006  -0.6064556  )
         5           S   tau(   5) = (   0.1249982   0.0721692  -0.1241671  )
         6           S   tau(   6) = (  -0.0000016   0.1443364   0.3582431  )
         7           S   tau(   7) = (   0.0000004   0.0000005  -0.3584711  )
         8           S   tau(   8) = (   0.1249982   0.0721691   0.1241550  )
         9           S   tau(   9) = (  -0.0000015   0.1443364   0.6067201  )
        10           Mo  tau(  10) = (  -0.0000021   0.4330115   0.4823527  )
        11           Mo  tau(  11) = (   0.0000001   0.2886759  -0.4825273  )
        12           Mo  tau(  12) = (  -0.1250009   0.3608432  -0.0000744  )
        13           S   tau(  13) = (  -0.1249999   0.2165071  -0.6064556  )
        14           S   tau(  14) = (  -0.0000017   0.2886753  -0.1241667  )
        15           S   tau(  15) = (  -0.1250020   0.3608427   0.3582430  )
        16           S   tau(  16) = (  -0.1249998   0.2165070  -0.3584711  )
        17           S   tau(  17) = (  -0.0000017   0.2886752   0.1241551  )
        18           S   tau(  18) = (  -0.1250020   0.3608428   0.6067200  )
        19           Mo  tau(  19) = (  -0.1250025   0.6495181   0.4823527  )
        20           Mo  tau(  20) = (  -0.1250002   0.5051824  -0.4825273  )
        21           Mo  tau(  21) = (  -0.2500019   0.5773502  -0.0000747  )
        22           S   tau(  22) = (  -0.2500002   0.4330136  -0.6064556  )
        23           S   tau(  23) = (  -0.1250019   0.5051815  -0.1241659  )
        24           S   tau(  24) = (  -0.2500023   0.5773492   0.3582430  )
        25           S   tau(  25) = (  -0.2500001   0.4330135  -0.3584711  )
        26           S   tau(  26) = (  -0.1250021   0.5051816   0.1241548  )
        27           S   tau(  27) = (  -0.2500023   0.5773492   0.6067201  )
        28           Mo  tau(  28) = (   0.2499985  -0.0000014   0.4823528  )
        29           Mo  tau(  29) = (  -0.2500004   0.7216889  -0.4825273  )
        30           Mo  tau(  30) = (  -0.3750035   0.7938587  -0.0000751  )
        31           S   tau(  31) = (  -0.3750004   0.6495201  -0.6064556  )
        32           S   tau(  32) = (  -0.2500024   0.7216883  -0.1241659  )
        33           S   tau(  33) = (  -0.3750023   0.7938557   0.3582430  )
        34           S   tau(  34) = (  -0.3750004   0.6495200  -0.3584711  )
        35           S   tau(  35) = (  -0.2500028   0.7216884   0.1241544  )
        36           S   tau(  36) = (  -0.3750023   0.7938556   0.6067199  )
        37           Mo  tau(  37) = (   0.3749981   0.2165050   0.4823525  )
        38           Mo  tau(  38) = (   0.3750004   0.0721694  -0.4825273  )
        39           Mo  tau(  39) = (   0.2499973   0.1443382  -0.0000750  )
        40           S   tau(  40) = (   0.2500004   0.0000006  -0.6064556  )
        41           S   tau(  41) = (   0.3749982   0.0721689  -0.1241664  )
        42           S   tau(  42) = (   0.2499983   0.1443364   0.3582430  )
        43           S   tau(  43) = (   0.2500004   0.0000005  -0.3584711  )
        44           S   tau(  44) = (   0.3749982   0.0721692   0.1241548  )
        45           S   tau(  45) = (   0.2499984   0.1443363   0.6067201  )
        46           Mo  tau(  46) = (   0.2499981   0.4330115   0.4823527  )
        47           Mo  tau(  47) = (   0.2500001   0.2886759  -0.4825273  )
        48           Mo  tau(  48) = (   0.1249978   0.3608446  -0.0000747  )
        49           S   tau(  49) = (   0.1250001   0.2165071  -0.6064556  )
        50           S   tau(  50) = (   0.2499977   0.2886754  -0.1241668  )
        51           S   tau(  51) = (   0.1249981   0.3608427   0.3582430  )
        52           S   tau(  52) = (   0.1250002   0.2165070  -0.3584711  )
        53           S   tau(  53) = (   0.2499978   0.2886754   0.1241550  )
        54           S   tau(  54) = (   0.1249981   0.3608427   0.6067200  )
        55           Mo  tau(  55) = (   0.1249976   0.6495181   0.4823528  )
        56           Mo  tau(  56) = (   0.1249998   0.5051824  -0.4825273  )
        57           Mo  tau(  57) = (  -0.0000011   0.5773502  -0.0000746  )
        58           S   tau(  58) = (  -0.0000002   0.4330136  -0.6064556  )
        59           S   tau(  59) = (   0.1249978   0.5051816  -0.1241667  )
        60           S   tau(  60) = (  -0.0000023   0.5773491   0.3582431  )
[...]
       131           S   tau( 131) = (   0.6249978   0.5051817  -0.1241660  )
       132           S   tau( 132) = (   0.4999980   0.5773491   0.3582431  )
       133           S   tau( 133) = (   0.4999999   0.4330135  -0.3584711  )
       134           S   tau( 134) = (   0.6249975   0.5051818   0.1241544  )
       135           S   tau( 135) = (   0.4999981   0.5773491   0.6067201  )
       136           Mo  tau( 136) = (  -0.0000012  -0.0000013   0.4823527  )
       137           Mo  tau( 137) = (   0.4999996   0.7216889  -0.4825273  )
       138           Mo  tau( 138) = (   0.3749969   0.7938580  -0.0000749  )
       139           S   tau( 139) = (   0.3749996   0.6495201  -0.6064556  )
       140           S   tau( 140) = (   0.4999973   0.7216884  -0.1241666  )
       141           S   tau( 141) = (   0.3749976   0.7938558   0.3582430  )
       142           S   tau( 142) = (   0.3749996   0.6495200  -0.3584711  )
       143           S   tau( 143) = (   0.4999974   0.7216884   0.1241546  )
       144           S   tau( 144) = (   0.3749976   0.7938557   0.6067202  )
       145           Pd  tau( 145) = (   0.1250067   0.3608311   0.7811136  )

     DFT-D3 Dispersion Correction (3-body terms):
       Reference C6 values for interpolation:

         atom   Coordination number   C6
         S          0.000           268.01
         S          0.995           261.99
         S          1.990           251.62
         Mo         0.000          1691.79
         Mo         1.942          1004.01
         Mo        11.056           674.22
         Pd         0.000          1217.01
         Pd         1.863           573.90
         Pd         5.710           531.75

       Values used:

         atom   Coordination number  R0_AB[au]  C6      C8
         Mo        10.202            3.547    674.22  77634.20
         Mo        10.189            3.547    674.22  77634.20
         Mo        10.201            3.547    674.22  77634.20
         S          3.753            3.128    251.62  12327.25
[...]
     atom   12 type  1   force =    -0.00000489   -0.00001892    0.00001198
     atom   13 type  2   force =     0.00000000    0.00000000    0.00000000
     atom   14 type  2   force =    -0.00000806   -0.00000466    0.00000476
     atom   15 type  2   force =     0.00000100    0.00000270   -0.00000295
     atom   16 type  2   force =     0.00000000    0.00000000    0.00000000
     atom   17 type  2   force =     0.00000015    0.00000057    0.00001336
     atom   18 type  2   force =    -0.00000029   -0.00000014   -0.00000613
     atom   19 type  1   force =     0.00000373   -0.00002133   -0.00002214
     atom   20 type  1   force =     0.00000000    0.00000000    0.00000000
     atom   21 type  1   force =    -0.00002419    0.00001290    0.00002403
     atom   22 type  2   force =     0.00000000    0.00000000    0.00000000
     atom   23 type  2   force =    -0.00000404    0.00000223   -0.00000603
     atom   24 type  2   force =    -0.00000089    0.00000036   -0.00000214
     atom   25 type  2   force =     0.00000000    0.00000000    0.00000000
     atom   26 type  2   force =    -0.00000307    0.00000149    0.00001039
     atom   27 type  2   force =     0.00000356   -0.00000222   -0.00000451
     atom   28 type  1   force =    -0.00001605    0.00001443   -0.00002174
     atom   29 type  1   force =     0.00000000    0.00000000    0.00000000
     atom   30 type  1   force =    -0.00000079   -0.00002734    0.00002600
     atom   31 type  2   force =     0.00000000    0.00000000    0.00000000
     atom   32 type  2   force =     0.00000183    0.00000058    0.00000895
     atom   33 type  2   force =     0.00000027   -0.00000099   -0.00000221
     atom   34 type  2   force =     0.00000000    0.00000000    0.00000000
     atom   35 type  2   force =    -0.00000537   -0.00000260    0.00000034
     atom   36 type  2   force =     0.00000031    0.00000433   -0.00000451
     atom   37 type  1   force =    -0.00001379    0.00000809   -0.00000997
     atom   38 type  1   force =     0.00000000    0.00000000    0.00000000
     atom   39 type  1   force =     0.00002244    0.00000594    0.00001061
     atom   40 type  2   force =     0.00000000    0.00000000    0.00000000
     atom   41 type  2   force =     0.00000433   -0.00000123    0.00000795
     atom   42 type  2   force =    -0.00000237    0.00000011   -0.00000274
     atom   43 type  2   force =     0.00000000    0.00000000    0.00000000
     atom   44 type  2   force =    -0.00000178    0.00000112    0.00001048
     atom   45 type  2   force =     0.00000072   -0.00000021   -0.00000617
     atom   46 type  1   force =    -0.00000561   -0.00000389    0.00000706
     atom   47 type  1   force =     0.00000000    0.00000000    0.00000000
     atom   48 type  1   force =    -0.00000000    0.00000247    0.00004301
     atom   49 type  2   force =     0.00000000    0.00000000    0.00000000
     atom   50 type  2   force =     0.00000766   -0.00000504    0.00000469
     atom   51 type  2   force =     0.00000006   -0.00000015    0.00000248
     atom   52 type  2   force =     0.00000000    0.00000000    0.00000000
     atom   53 type  2   force =     0.00000011    0.00000039    0.00001319
     atom   54 type  2   force =     0.00000002    0.00000007   -0.00000451
     atom   55 type  1   force =    -0.00000079   -0.00001661   -0.00000982
     atom   56 type  1   force =     0.00000000    0.00000000    0.00000000
     atom   57 type  1   force =     0.00001458    0.00001330    0.00001041
     atom   58 type  2   force =     0.00000000    0.00000000    0.00000000
     atom   59 type  2   force =    -0.00000002    0.00000940    0.00000529
     atom   60 type  2   force =    -0.00000164   -0.00000227   -0.00000289
[...]
     atom  131 type  2   force =     0.00000011   -0.00000181    0.00000940
     atom  132 type  2   force =     0.00000121    0.00000019   -0.00000187
     atom  133 type  2   force =     0.00000000    0.00000000    0.00000000
     atom  134 type  2   force =     0.00000001    0.00000590   -0.00000021
     atom  135 type  2   force =    -0.00000368   -0.00000266   -0.00000434
     atom  136 type  1   force =     0.00001757    0.00001446   -0.00002138
     atom  137 type  1   force =     0.00000000    0.00000000    0.00000000
     atom  138 type  1   force =     0.00000455   -0.00000027    0.00000319
     atom  139 type  2   force =     0.00000000    0.00000000    0.00000000
     atom  140 type  2   force =    -0.00000115    0.00000075    0.00000906
     atom  141 type  2   force =     0.00000308   -0.00000158   -0.00000631
     atom  142 type  2   force =     0.00000000    0.00000000    0.00000000
     atom  143 type  2   force =     0.00000542   -0.00000231    0.00000002
     atom  144 type  2   force =     0.00000242   -0.00000134   -0.00000066
     atom  145 type  3   force =     0.00000010   -0.00000011   -0.00000703

     DFT-D3 dispersion contribution to forces:
     atom    1 type  1   force =     0.00000000    0.00015066   -0.00229341
     atom    2 type  1   force =     0.00000000    0.00000006    0.00260432
     atom    3 type  1   force =    -0.00000011    0.00000155   -0.00003174
     atom    4 type  2   force =    -0.00000001    0.00000001    0.00441148
     atom    5 type  2   force =    -0.00000001    0.00000014   -0.00004846
     atom    6 type  2   force =     0.00002411    0.00003597   -0.00012750
     atom    7 type  2   force =    -0.00000004    0.00000001    0.00023560
     atom    8 type  2   force =    -0.00000001    0.00000279    0.00009048
     atom    9 type  2   force =     0.00016960    0.00030917   -0.00416443
     atom   10 type  1   force =     0.00013053   -0.00007537   -0.00229334
     atom   11 type  1   force =    -0.00000009   -0.00000005    0.00260436
     atom   12 type  1   force =     0.00000129   -0.00000088   -0.00003173
     atom   13 type  2   force =    -0.00000001   -0.00000000    0.00441145
     atom   14 type  2   force =     0.00000042    0.00000023   -0.00004816
     atom   15 type  2   force =     0.00004320    0.00000289   -0.00012751
     atom   16 type  2   force =    -0.00000007   -0.00000004    0.00023560
     atom   17 type  2   force =    -0.00000021   -0.00000015    0.00009062
     atom   18 type  2   force =     0.00035265   -0.00000774   -0.00416438
     atom   19 type  1   force =     0.00009143   -0.00009964   -0.00251428
     atom   20 type  1   force =     0.00000005   -0.00000003    0.00260433
     atom   21 type  1   force =     0.00000211   -0.00000121   -0.00003414
     atom   22 type  2   force =     0.00000001   -0.00000001    0.00441148
     atom   23 type  2   force =     0.00000013   -0.00000007   -0.00004846
     atom   24 type  2   force =    -0.00000230    0.00000133   -0.00019910
     atom   25 type  2   force =    -0.00000001   -0.00000003    0.00023558
     atom   26 type  2   force =     0.00000241   -0.00000139    0.00009048
     atom   27 type  2   force =     0.00010159   -0.00005865   -0.00436353
     atom   28 type  1   force =    -0.00004059    0.00012904   -0.00251423
     atom   29 type  1   force =     0.00000004    0.00000002    0.00260436
     atom   30 type  1   force =    -0.00000001    0.00000244   -0.00003414
     atom   31 type  2   force =     0.00000000    0.00000000    0.00441157
     atom   32 type  2   force =     0.00000029    0.00000019   -0.00004877
     atom   33 type  2   force =     0.00000000   -0.00000265   -0.00019910
     atom   34 type  2   force =    -0.00000000   -0.00000001    0.00023534
     atom   35 type  2   force =     0.00000225    0.00000131    0.00008874
     atom   36 type  2   force =    -0.00000000    0.00011735   -0.00436352
     atom   37 type  1   force =    -0.00024666    0.00014240   -0.00232492
     atom   38 type  1   force =     0.00000005    0.00000003    0.00260447
     atom   39 type  1   force =     0.00000010    0.00000155   -0.00003175
     atom   40 type  2   force =     0.00000001    0.00000001    0.00441148
     atom   41 type  2   force =    -0.00000011   -0.00000004   -0.00004851
     atom   42 type  2   force =    -0.00002411    0.00003598   -0.00012749
     atom   43 type  2   force =     0.00000004    0.00000001    0.00023559
     atom   44 type  2   force =    -0.00000097    0.00000187    0.00008831
     atom   45 type  2   force =    -0.00016956    0.00030914   -0.00416446
     atom   46 type  1   force =    -0.00013049   -0.00007535   -0.00229338
     atom   47 type  1   force =     0.00000008   -0.00000005    0.00260437
     atom   48 type  1   force =    -0.00000001   -0.00000001   -0.00003230
     atom   49 type  2   force =     0.00000000    0.00000005    0.00441126
     atom   50 type  2   force =    -0.00000041    0.00000024   -0.00004816
     atom   51 type  2   force =     0.00000001   -0.00000000    0.00006353
     atom   52 type  2   force =     0.00000000   -0.00000008    0.00023575
     atom   53 type  2   force =     0.00000021   -0.00000014    0.00009062
     atom   54 type  2   force =    -0.00000001    0.00000002   -0.00459209
     atom   55 type  1   force =     0.00000001   -0.00028478   -0.00232498
     atom   56 type  1   force =    -0.00000000    0.00000010    0.00260437
     atom   57 type  1   force =     0.00000140   -0.00000068   -0.00003173
     atom   58 type  2   force =     0.00000004   -0.00000002    0.00441126
     atom   59 type  2   force =     0.00000001   -0.00000047   -0.00004817
     atom   60 type  2   force =     0.00001910   -0.00003885   -0.00012752
[...]
     atom  131 type  2   force =     0.00000000   -0.00000034   -0.00004877
     atom  132 type  2   force =     0.00000230    0.00000133   -0.00019909
     atom  133 type  2   force =     0.00000001   -0.00000004    0.00023558
     atom  134 type  2   force =     0.00000000   -0.00000260    0.00008875
     atom  135 type  2   force =    -0.00010161   -0.00005867   -0.00436352
     atom  136 type  1   force =     0.00004059    0.00012903   -0.00251423
     atom  137 type  1   force =    -0.00000004    0.00000002    0.00260435
     atom  138 type  1   force =    -0.00000088    0.00000051   -0.00003365
     atom  139 type  2   force =    -0.00000002    0.00000000    0.00441148
     atom  140 type  2   force =    -0.00000030    0.00000019   -0.00004877
     atom  141 type  2   force =     0.00000194   -0.00000112   -0.00020244
     atom  142 type  2   force =    -0.00000003    0.00000003    0.00023558
     atom  143 type  2   force =    -0.00000227    0.00000132    0.00008875
     atom  144 type  2   force =     0.00000293   -0.00000168   -0.00439202
     atom  145 type  3   force =    -0.00000015    0.00000020   -0.00529333

     Total force =     0.002552     Total SCF correction =     0.000162
     Energy error            =      1.2E-05 Ry
     Gradient error          =      7.5E-04 Ry/Bohr

     bfgs converged in  10 scf cycles and   9 bfgs steps
     (criteria: energy <  1.0E-04 Ry, force <  1.0E-03 Ry/Bohr)

     End of BFGS Geometry Optimization

     Final energy             =  -24357.1283536279 Ry

     File ./outdir/pwscf.bfgs deleted, as requested
Begin final coordinates

ATOMIC_POSITIONS (angstrom)
Mo            1.5768933344        2.7231703001        6.0769190121
Mo            1.5769197498        0.9104407117       -6.0872367793    0   0   0
Mo           -0.0000427850        1.8209526279       -0.0009160990
S             0.0000044503        0.0000077495       -7.6506323570    0   0   0
S             1.5769005332        0.9105143758       -1.5663371471
S            -0.0049912073        1.8181410985        4.5175426680
S             0.0000053241        0.0000068460       -4.5222282367    0   0   0
S             1.5768992953        0.9104612426        1.5663194495
S             0.0052799628        1.8230955467        7.6556188205
Mo           -0.0070433970        5.4666340673        6.0769269194
Mo            0.0000011799        3.6417399547       -6.0872367793    0   0   0
Mo           -1.5768608103        4.5521003918       -0.0009049988
S            -1.5769141197        2.7313069925       -7.6506323570    0   0   0
S            -0.0001020301        3.6416916723       -1.5663963884
S            -1.5817625790        4.5491964521        4.5175483339
S            -1.5769132459        2.7313060890       -4.5222282367    0   0   0
S             0.0002140022        3.6418734364        1.5664020444
S            -1.5723405227        4.5556098200        7.6556201717
Mo           -1.5752605584        8.1952799452        6.0870892246
Mo           -1.5769173901        6.3730391977       -6.0872367793    0   0   0
Mo           -3.1538433045        7.2834595895       -0.0009631812
S            -3.1538326896        5.4626062355       -7.6506323570    0   0   0
S            -1.5768726940        6.3729939315       -1.5663422166
S            -3.1527042694        7.2827827458        4.5214842983
S            -3.1538318159        5.4626053320       -4.5222282367    0   0   0
S            -1.5769150722        6.3730148993        1.5663306593
S            -3.1533708496        7.2831672124        7.6542053114
Mo            3.1558636992        0.0007388045        6.0870881754
Mo           -3.1538359601        9.1043384407       -6.0872367793    0   0   0
Mo           -4.7307902156       10.0147929361       -0.0009659053
S            -4.7307512596        8.1939054785       -7.6506323570    0   0   0
S            -3.1539291451        9.1042798843       -1.5665330873
S            -4.7307776823       10.0160805056        4.5214818183
S            -4.7307503859        8.1939045750       -4.5222282367    0   0   0
S            -3.1537757415        9.1043743814        1.5661635359
S            -4.7307784068       10.0153117074        7.6542065054
Mo            4.7289609318        2.7322991094        6.0893955677
Mo            4.7307503218        0.9104407117       -6.0872367793    0   0   0
Mo            3.1538189825        1.8209543534       -0.0009188377
S             3.1538350223        0.0000077495       -7.6506323570    0   0   0
S             4.7306286615        0.9105291225       -1.5665791909
S             3.1587789117        1.8181415745        4.5175441573
S             3.1538358961        0.0000068460       -4.5222282367    0   0   0
S             4.7309438464        0.9103218915        1.5658985133
S             3.1485061491        1.8230969682        7.6556179337
Mo            3.1608291006        5.4666375805        6.0769221145
Mo            3.1538317519        3.6417399547       -6.0872367793    0   0   0
Mo            1.5768865374        4.5521687674       -0.0010336198
S             1.5769164523        2.7313069925       -7.6506323570    0   0   0
S             3.1538856035        3.6416882056       -1.5663973365
S             1.5768919673        4.5521478488        4.5203275173
S             1.5769173261        2.7313060890       -4.5222282367    0   0   0
S             3.1535719623        3.6418727007        1.5664019500
S             1.5768961440        4.5521420077        7.6452935650
Mo            1.5768895585        8.1918456528        6.0893948334
Mo            1.5769131819        6.3730391977       -6.0872367793    0   0   0
Mo            0.0000625603        7.2834322860       -0.0009089586
S            -0.0000021176        5.4626062355       -7.6506323570    0   0   0
S             1.5768856038        6.3731168164       -1.5663927241
S             0.0001159108        7.2891003967        4.5175472729
[...]
S             7.8845505849        6.3731140297       -1.5665258021
S             6.3064791184        7.2827843235        4.5214826291
S             6.3076599001        5.4626053320       -4.5222282367    0   0   0
S             7.8845473463        6.3729353668        1.5661637020
S             6.3071449334        7.2831687704        7.6542053266
Mo           -0.0020736537        0.0007387233        6.0870884843
Mo            6.3076557559        9.1043384407       -6.0872367793    0   0   0
Mo            4.7307377412       10.0147622171       -0.0012556259
S             4.7307404564        8.1939054785       -7.6506323570    0   0   0
S             6.3077094142        9.1042761284       -1.5665260157
S             4.7294447078       10.0154821001        4.5210648404
S             4.7307413301        8.1939045750       -4.5222282367    0   0   0
S             6.3075542236        9.1043680900        1.5661538537
S             4.7294767428       10.0154634583        7.6559638102
Pd            1.5769905256        4.5520136284        9.7996678811
End final coordinates

     Writing all to output data dir ./outdir/pwscf.save/

     General routines

     Parallel routines

   This run was terminated on:  12: 8:54  11Aug2023

   JOB DONE.
Application 11026412 resources: utime ~1609243s, stime ~20540s, Rss ~2381904, inblocks ~0, outblocks ~34278952