     Program PWSCF v.7.3 starts on 31Mar2024 at  5:32:50

     Waiting for input...
     Reading input from standard input
Warning: card &CELL ignored
Warning: card / ignored

     Current dimensions of program PWSCF are:
     Max number of different atomic species (ntypx) = 10
     Max number of k-points (npk) =  40000
     Max angular momentum in pseudopotentials (lmaxx) =  4
     file Mo.pbe-spn-kjpaw_psl.1.0.0.UPF: wavefunction(s)  4S 4D renormalized
     file S.pbe-n-kjpaw_psl.1.0.0.UPF: wavefunction(s)  3S 3P renormalized
     file Pt.pbe-spfn-kjpaw_psl.1.0.0.UPF: wavefunction(s)  5P 4F renormalized
     file Pd.pbe-spn-kjpaw_psl.1.0.0.UPF: wavefunction(s)  4S 5S 4D renormalized

     R & G space division:  proc/nbgrp/npool/nimage =      36
     Subspace diagonalization in iterative solution of the eigenvalue problem:
     one sub-group per band group will be used

     Using Slab Decomposition

     bravais-lattice index     =            0
     lattice parameter (alat)  =      23.8395  a.u.
     unit-cell volume          =   28182.8498 (a.u.)^3
     number of atoms/cell      =          147
     number of atomic types    =            4
     number of electrons       =      1330.00
     number of Kohn-Sham states=          798
     kinetic-energy cutoff     =      77.0000  Ry
     charge density cutoff     =     539.0000  Ry
     scf convergence threshold =      1.0E-06
     mixing beta               =       0.2000
     number of iterations used =            8  plain     mixing
     energy convergence thresh.=      1.0E-04
     force convergence thresh. =      1.0E-03
     Exchange-correlation= SLA  PW   PBX  PBC
                           (   1   4   3   4   0   0   0)
     nstep                     =         1000

     Effective Screening Medium Method
     Boundary Conditions: Vacuum-Slab-Vacuum
     total charge in unit cell        =   0.0000
     grid points for fit at edges     =        4

     celldm(1)=  23.839504  celldm(2)=   0.000000  celldm(3)=   0.000000
     celldm(4)=   0.000000  celldm(5)=   0.000000  celldm(6)=   0.000000

     crystal axes: (cart. coord. in units of alat)
               a(1) = (   1.000000   0.000000   0.000000 )
               a(2) = (  -0.500001   0.866026   0.000000 )
               a(3) = (   0.000000   0.000000   2.401941 )

     reciprocal axes: (cart. coord. in units 2 pi/alat)
               b(1) = (  1.000000  0.577351  0.000000 )
               b(2) = (  0.000000  1.154700  0.000000 )
               b(3) = (  0.000000  0.000000  0.416330 )

     PseudoPot. # 1 for Mo read from file:
     ./pseudo/Mo.pbe-spn-kjpaw_psl.1.0.0.UPF
     MD5 check sum: 317bf72632116215fd98f72de1686f13
     Pseudo is Projector augmented-wave + core cor, Zval = 14.0
     Generated using 'atomic' code by A. Dal Corso  v.7.2
     Shape of augmentation charge: PSQ
     Using radial grid of 1229 points,  6 beta functions with:
                l(1) =   0
                l(2) =   0
                l(3) =   1
                l(4) =   1
                l(5) =   2
                l(6) =   2
     Q(r) pseudized with 0 coefficients

     PseudoPot. # 2 for S  read from file:
     ./pseudo/S.pbe-n-kjpaw_psl.1.0.0.UPF
     MD5 check sum: 8b7b5302570d38d5e87fed6a1065abda
     Pseudo is Projector augmented-wave + core cor, Zval =  6.0
     Generated using 'atomic' code by A. Dal Corso  v.7.2
     Shape of augmentation charge: PSQ
     Using radial grid of 1151 points,  6 beta functions with:
                l(1) =   0
                l(2) =   0
                l(3) =   1
                l(4) =   1
                l(5) =   2
                l(6) =   2
     Q(r) pseudized with 0 coefficients

     PseudoPot. # 3 for Pt read from file:
     ./pseudo/Pt.pbe-spfn-kjpaw_psl.1.0.0.UPF
     MD5 check sum: 620096ebf4e6ebacc94de60fd67efcb5
     Pseudo is Projector augmented-wave + core cor, Zval = 32.0
     Generated using 'atomic' code by A. Dal Corso  v.7.2
     Shape of augmentation charge: PSQ
     Using radial grid of 1277 points,  8 beta functions with:
                l(1) =   0
                l(2) =   0
                l(3) =   1
                l(4) =   1
                l(5) =   2
                l(6) =   2
                l(7) =   3
                l(8) =   3
     Q(r) pseudized with 0 coefficients

     PseudoPot. # 4 for Pd read from file:
     ./pseudo/Pd.pbe-spn-kjpaw_psl.1.0.0.UPF
     MD5 check sum: a60571a671f2502b8a6a4569d20a6edb
     Pseudo is Projector augmented-wave + core cor, Zval = 18.0
     Generated using 'atomic' code by A. Dal Corso  v.7.2
     Shape of augmentation charge: PSQ
     Using radial grid of 1235 points,  6 beta functions with:
                l(1) =   0
                l(2) =   0
                l(3) =   1
                l(4) =   1
                l(5) =   2
                l(6) =   2
     Q(r) pseudized with 0 coefficients

     atomic species   valence    mass     pseudopotential
     Mo               14.00    95.95000     Mo( 1.00)
     S                 6.00    32.06000     S ( 1.00)
     Pt               32.00   195.08400     Pt( 1.00)
     Pd               18.00   106.42000     Pd( 1.00)

     No symmetry found

   Cartesian axes

     site n.     atom                  positions (alat units)
         1        Mo     tau(   1) = (   0.1246074   0.2157200   0.4826345  )
         2        Mo     tau(   2) = (   0.1250004   0.0721694  -0.4825273  )
         3        Mo     tau(   3) = (   0.0000068   0.1443549  -0.0000406  )
         4        S      tau(   4) = (   0.0000004   0.0000006  -0.6064556  )
         5        S      tau(   5) = (   0.1249873   0.0722031  -0.1241756  )
         6        S      tau(   6) = (   0.0000973   0.1450650   0.3573519  )
         7        S      tau(   7) = (   0.0000004   0.0000005  -0.3584711  )
         8        S      tau(   8) = (   0.1249847   0.0720950   0.1240801  )
         9        S      tau(   9) = (  -0.0005301   0.1434694   0.6062599  )
        10        Mo     tau(  10) = (  -0.0009156   0.4330317   0.4832560  )
        11        Mo     tau(  11) = (   0.0000001   0.2886759  -0.4825273  )
        12        Mo     tau(  12) = (  -0.1249829   0.3608507   0.0000027  )
        13        S      tau(  13) = (  -0.1249999   0.2165071  -0.6064556  )
        14        S      tau(  14) = (   0.0000128   0.2886930  -0.1241006  )
        15        S      tau(  15) = (  -0.1248837   0.3612581   0.3580377  )
        16        S      tau(  16) = (  -0.1249998   0.2165070  -0.3584711  )
        17        S      tau(  17) = (   0.0000764   0.2887257   0.1242499  )
        18        S      tau(  18) = (  -0.1253220   0.3603286   0.6073134  )
        19        Mo     tau(  19) = (  -0.1249684   0.6493789   0.4818062  )
        20        Mo     tau(  20) = (  -0.1250002   0.5051824  -0.4825273  )
        21        Mo     tau(  21) = (  -0.2500040   0.5773207  -0.0001409  )
        22        S      tau(  22) = (  -0.2500002   0.4330136  -0.6064556  )
        23        S      tau(  23) = (  -0.1249903   0.5051158  -0.1241917  )
        24        S      tau(  24) = (  -0.2499555   0.5769406   0.3578597  )
        25        S      tau(  25) = (  -0.2500001   0.4330135  -0.3584711  )
        26        S      tau(  26) = (  -0.1249930   0.5052458   0.1241101  )
        27        S      tau(  27) = (  -0.2497899   0.5778453   0.6063597  )
        28        Mo     tau(  28) = (   0.2497834  -0.0005160   0.4806710  )
        29        Mo     tau(  29) = (  -0.2500004   0.7216889  -0.4825273  )
        30        Mo     tau(  30) = (  -0.3750188   0.7938286  -0.0001549  )
        31        S      tau(  31) = (  -0.3750004   0.6495201  -0.6064556  )
        32        S      tau(  32) = (  -0.2500074   0.7216649  -0.1242513  )
        33        S      tau(  33) = (  -0.3752234   0.7935039   0.3566636  )
        34        S      tau(  34) = (  -0.3750004   0.6495200  -0.3584711  )
        35        S      tau(  35) = (  -0.2499996   0.7216607   0.1240200  )
        36        S      tau(  36) = (  -0.3746819   0.7948899   0.6057341  )
        37        Mo     tau(  37) = (   0.3750034   0.2123618   0.4807886  )
        38        Mo     tau(  38) = (   0.3750004   0.0721694  -0.4825273  )
        39        Mo     tau(  39) = (   0.2499981   0.1443415  -0.0000413  )
        40        S      tau(  40) = (   0.2500004   0.0000006  -0.6064556  )
        41        S      tau(  41) = (   0.3750280   0.0722231  -0.1241519  )
        42        S      tau(  42) = (   0.2489233   0.1437373   0.3564531  )
        43        S      tau(  43) = (   0.2500004   0.0000005  -0.3584711  )
        44        S      tau(  44) = (   0.3749877   0.0720947   0.1241383  )
        45        S      tau(  45) = (   0.2497122   0.1423104   0.6055821  )
        46        Mo     tau(  46) = (   0.2490774   0.4329018   0.4862977  )
        47        Mo     tau(  47) = (   0.2500001   0.2886759  -0.4825273  )
        48        Mo     tau(  48) = (   0.1250319   0.3608540  -0.0000126  )
        49        S      tau(  49) = (   0.1250001   0.2165071  -0.6064556  )
        50        S      tau(  50) = (   0.2500259   0.2886851  -0.1240979  )
        51        S      tau(  51) = (   0.1263042   0.3620125   0.3614359  )
        52        S      tau(  52) = (   0.1250002   0.2165070  -0.3584711  )
        53        S      tau(  53) = (   0.2500168   0.2886898   0.1242904  )
        54        S      tau(  54) = (   0.1173694   0.3566575   0.6132890  )
        55        Mo     tau(  55) = (   0.1240062   0.6506471   0.4823696  )
        56        Mo     tau(  56) = (   0.1249998   0.5051824  -0.4825273  )
        57        Mo     tau(  57) = (   0.0000191   0.5773226  -0.0001255  )
        58        S      tau(  58) = (  -0.0000002   0.4330136  -0.6064556  )
        59        S      tau(  59) = (   0.1250359   0.5051398  -0.1241676  )
        60        S      tau(  60) = (   0.0000697   0.5768181   0.3580317  )
[...]
       133        S      tau( 133) = (   0.4999999   0.4330135  -0.3584711  )
       134        S      tau( 134) = (   0.6250095   0.5052263   0.1241915  )
       135        S      tau( 135) = (   0.5006407   0.5846211   0.6091832  )
       136        Mo     tau( 136) = (   0.0000410   0.0004185   0.4809769  )
       137        Mo     tau( 137) = (   0.4999996   0.7216889  -0.4825273  )
       138        Mo     tau( 138) = (   0.3750036   0.7938273  -0.0000272  )
       139        S      tau( 139) = (   0.3749996   0.6495201  -0.6064556  )
       140        S      tau( 140) = (   0.4999499   0.7216482  -0.1241729  )
       141        S      tau( 141) = (   0.3750006   0.7941054   0.3569117  )
       142        S      tau( 142) = (   0.3749996   0.6495200  -0.3584711  )
       143        S      tau( 143) = (   0.5000314   0.7216102   0.1241515  )
       144        S      tau( 144) = (   0.3752329   0.7966920   0.6062052  )
       145        Pt     tau( 145) = (   0.2580795   0.4348292   0.7095693  )
       146        Pd     tau( 146) = (   0.4899479   0.4358638   0.7204770  )
       147        Pt     tau( 147) = (  -0.3742275   0.6505581   0.7280829  )

     DFT-D3 Dispersion Correction (3-body terms):
       Reference C6 values for interpolation:

[...]
   -40.6189 -40.6159 -40.6119 -40.6047 -40.6043 -40.5944 -40.5878 -40.5875
   -40.5875 -40.5854 -40.5806 -40.5650 -40.5573 -40.5571 -40.5518 -40.5486
   -40.5414 -40.5404 -40.5358 -40.5198 -40.5150 -40.5039 -40.4876 -40.4823
   -40.4701 -40.4487 -20.1146 -19.8916 -19.8762 -19.7995 -19.7191 -19.6752
   -19.5311 -19.4833 -19.4392 -19.4269 -19.2918 -19.2808 -19.0881 -18.9556
   -18.8361 -18.8135 -18.7612 -18.7504 -18.7411 -18.7401 -18.7333 -18.7194
   -18.6630 -18.6418 -18.6251 -18.6195 -18.6096 -18.6079 -18.5578 -18.5493
   -18.5082 -18.4961 -18.4899 -18.4689 -18.4475 -18.4418 -18.4271 -18.4034
   -18.3871 -18.3803 -18.3278 -18.2971 -18.2922 -18.2557 -18.2441 -18.2271
   -18.2115 -18.1720 -18.1702 -18.1519 -18.1313 -18.1311 -18.1310 -18.1308
   -18.1267 -18.1193 -18.0989 -18.0804 -18.0671 -18.0581 -18.0561 -18.0516
   -18.0475 -18.0446 -18.0225 -18.0207 -18.0012 -17.9950 -17.9898 -17.9770
   -17.9557 -17.9509 -17.9466 -17.9443 -17.9318 -17.9281 -17.8920 -17.8876
   -17.8792 -17.8682 -17.8673 -17.8673 -17.8360 -17.8236 -17.8201 -17.8078
   -17.8076 -17.7956 -17.7920 -17.7906 -17.7887 -17.7823 -17.7495 -17.7471
   -17.7001 -17.6838 -12.1572 -12.0167 -11.8134 -11.7076 -11.6775 -11.6155
   -11.5662 -11.5157 -11.4827 -11.4774 -11.4758 -11.4750 -11.4548 -11.4444
   -11.4397 -11.3973 -11.3841 -11.3811 -11.3724 -11.3519 -11.3360 -11.3250
   -11.3103 -11.2892 -11.2783 -11.2630 -11.2602 -11.2601 -11.2317 -11.2178
   -11.2150 -11.2020 -11.1629 -11.1624 -11.1564 -11.1368 -11.0882 -11.0729
   -11.0124 -10.9987 -10.9870 -10.9751 -10.9626 -10.9375 -10.9279 -10.9218
   -10.9157 -10.8978 -10.8882 -10.8751 -10.8632 -10.8459 -10.8424 -10.8345
   -10.8337 -10.8323 -10.8313 -10.8244 -10.8197 -10.7862 -10.7709 -10.7701
   -10.7653 -10.7514 -10.7137 -10.6610 -10.6392 -10.5771 -10.5639 -10.5480
   -10.4944 -10.4813 -10.3989 -10.3673 -10.3080 -10.2749 -10.1859 -10.1778
   -10.1420 -10.1219 -10.1120 -10.0931 -10.0648 -10.0303 -10.0085  -9.9906
    -9.9666  -9.9548  -9.9459  -9.9409  -9.9342  -9.9248  -9.9124  -9.9076
    -9.9013  -9.8897  -9.8772  -9.8461  -9.8260  -9.8019  -9.7995  -9.7729
    -9.7655  -9.7408  -9.7239  -9.7201  -9.7139  -9.7061  -9.7017  -9.6944
    -9.6758  -9.6729  -9.6554  -9.6343  -9.6308  -9.6204  -9.5908  -9.5703
    -9.5623  -9.5505  -9.5321  -9.5286  -9.5093  -9.4792  -9.4744  -9.4568
    -9.3902  -9.3701  -9.3590  -9.3491  -9.3028  -9.2900  -9.2256  -9.2123
    -9.2098  -9.1923  -9.1815  -9.1677  -9.1598  -9.1502  -9.1240  -9.1171
    -9.1006  -9.0985  -9.0743  -9.0589  -9.0540  -9.0450  -9.0356  -9.0343
    -9.0098  -8.9928  -8.9870  -8.9682  -8.9642  -8.9627  -8.9530  -8.9482
    -8.9376  -8.9325  -8.9269  -8.9141  -8.9021  -8.8841  -8.8759  -8.8740
[...]
    -3.7606  -3.7345  -3.7059  -3.6543  -3.6301  -3.6053  -3.6010  -3.5965
    -3.5955  -3.5827  -3.5825  -3.5748  -3.5547  -3.5375  -3.5207  -3.5140
    -3.5069  -3.4978  -3.4937  -3.4777  -3.4759  -3.4733  -3.4616  -3.4443
    -3.4272  -3.4181  -3.4081  -3.3702  -3.3663  -3.3529  -3.3502  -3.3478
    -3.3335  -3.3211  -3.3182  -3.3167  -3.3086  -3.2844  -3.2739  -3.2734
    -3.2730  -3.2719  -3.2658  -3.2415  -3.2400  -3.2317  -3.2290  -3.2157
    -3.2123  -3.1999  -3.1946  -3.1891  -3.1859  -3.1636  -3.1465  -3.1350
    -3.1165  -3.1137  -3.1028  -3.0705  -3.0684  -3.0474  -3.0352  -3.0289
    -3.0283  -3.0133  -3.0108  -3.0102  -3.0097  -2.9891  -2.9775  -2.9645
    -2.9599  -2.9571  -2.9517  -2.9420  -2.9312  -2.9239  -2.9187  -2.9156
    -2.9083  -2.9030  -2.8998  -2.8888  -2.8671  -2.8600  -2.8502  -2.8365
    -2.8264  -2.8253  -2.8038  -2.7988  -2.7935  -2.7539  -2.7402  -2.7164
    -2.7111  -2.6717  -2.6694  -2.6504  -2.6467  -2.6337  -2.6278  -2.5786
    -2.5673  -2.5622  -2.5243  -2.5103  -2.5060  -2.4963  -2.4852  -2.4480
    -2.4289  -2.3726  -2.3631  -2.3326  -2.3118  -2.2995

     the Fermi energy is    -4.7072 ev

!    total energy              =  -27706.45653399 Ry
     total all-electron energy =   -549111.718973 Ry
     estimated scf accuracy    <          5.4E-09 Ry
     smearing contrib. (-TS)   =      -0.00000028 Ry
     internal energy E=F+TS    =  -27706.45653370 Ry

     The total energy is F=E-TS. E is the sum of the following terms:
     one-electron contribution =  525081.30510063 Ry
     hartree contribution      = -262721.80557079 Ry
     xc contribution           =   -1610.26860064 Ry
     ewald contribution        = -271671.94910740 Ry
     DFT-D3 Dispersion         =      -4.06402178 Ry
     one-center paw contrib.   =  -16779.67433373 Ry

     convergence has been achieved in  10 iterations

     negative rho (up, down):  9.330E-04 0.000E+00

     Forces acting on atoms (cartesian axes, Ry/au):

     atom    1 type  1   force =    -0.00004265    0.00011939   -0.00016264
     atom    2 type  1   force =     0.00000388   -0.00000340    0.00189362
     atom    3 type  1   force =     0.00003528   -0.00000498    0.00004653
     atom    4 type  2   force =     0.00000107   -0.00000272   -0.00327880
     atom    5 type  2   force =     0.00000637   -0.00004004   -0.00000111
     atom    6 type  2   force =    -0.00018041    0.00021645   -0.00001341
     atom    7 type  2   force =     0.00001177   -0.00001289    0.00145665
     atom    8 type  2   force =     0.00006463   -0.00007073   -0.00003067
     atom    9 type  2   force =    -0.00007216    0.00035053   -0.00006634
     atom   10 type  1   force =     0.00009630   -0.00003424   -0.00008118
     atom   11 type  1   force =     0.00000444   -0.00000088    0.00189398
     atom   12 type  1   force =     0.00002908   -0.00001716   -0.00001459
     atom   13 type  2   force =     0.00000085   -0.00000289   -0.00327851
     atom   14 type  2   force =    -0.00001325   -0.00007469   -0.00001875
     atom   15 type  2   force =     0.00027644    0.00010380   -0.00018048
     atom   16 type  2   force =     0.00000251   -0.00000117    0.00147259
     atom   17 type  2   force =     0.00005789    0.00002675    0.00001628
     atom   18 type  2   force =     0.00007302    0.00031478    0.00014172
     atom   19 type  1   force =    -0.00010360    0.00001935    0.00004624
     atom   20 type  1   force =     0.00000286   -0.00000030    0.00188926
     atom   21 type  1   force =    -0.00001400   -0.00001916   -0.00005108
     atom   22 type  2   force =     0.00000075   -0.00000267   -0.00327970
     atom   23 type  2   force =    -0.00002851   -0.00001835   -0.00005538
     atom   24 type  2   force =    -0.00047156    0.00041223    0.00001799
     atom   25 type  2   force =     0.00000809    0.00000996    0.00147152
     atom   26 type  2   force =    -0.00000621    0.00003138   -0.00005875
     atom   27 type  2   force =     0.00018643   -0.00019747    0.00006058
     atom   28 type  1   force =    -0.00006222   -0.00007939   -0.00006298
     atom   29 type  1   force =     0.00000558   -0.00000360    0.00189091
     atom   30 type  1   force =    -0.00000213   -0.00003922    0.00000848
     atom   31 type  2   force =     0.00000061   -0.00000268   -0.00327836
     atom   32 type  2   force =    -0.00001544   -0.00001948   -0.00002796
     atom   33 type  2   force =    -0.00031669   -0.00020064    0.00018800
     atom   34 type  2   force =     0.00001176   -0.00000736    0.00148141
     atom   35 type  2   force =     0.00003606   -0.00002414   -0.00001264
     atom   36 type  2   force =    -0.00027697    0.00012326   -0.00003546
     atom   37 type  1   force =    -0.00010290    0.00013710    0.00026994
     atom   38 type  1   force =     0.00000374   -0.00000530    0.00188903
     atom   39 type  1   force =     0.00003455   -0.00002463   -0.00002956
     atom   40 type  2   force =     0.00000023   -0.00000248   -0.00327860
     atom   41 type  2   force =     0.00002645   -0.00000457   -0.00007505
     atom   42 type  2   force =    -0.00031626   -0.00025396   -0.00010329
     atom   43 type  2   force =     0.00001598   -0.00000495    0.00146254
     atom   44 type  2   force =     0.00003311   -0.00004136   -0.00008596
     atom   45 type  2   force =    -0.00031505   -0.00029825   -0.00012206
     atom   46 type  1   force =     0.00037918    0.00038329   -0.00011386
     atom   47 type  1   force =     0.00000185   -0.00000138    0.00189224
     atom   48 type  1   force =     0.00000735   -0.00003793   -0.00001150
     atom   49 type  2   force =     0.00000070   -0.00000288   -0.00327856
     atom   50 type  2   force =     0.00002044   -0.00003093   -0.00000432
     atom   51 type  2   force =     0.00044860    0.00022379   -0.00014318
     atom   52 type  2   force =     0.00001171    0.00000592    0.00145986
     atom   53 type  2   force =    -0.00000826   -0.00001742   -0.00000184
     atom   54 type  2   force =     0.00005301    0.00008456   -0.00011797
     atom   55 type  1   force =     0.00005152   -0.00028422   -0.00003227
     atom   56 type  1   force =     0.00000246   -0.00000222    0.00188741
     atom   57 type  1   force =     0.00000995   -0.00001375   -0.00008116
     atom   58 type  2   force =     0.00000075   -0.00000317   -0.00327906
     atom   59 type  2   force =     0.00001899   -0.00005214   -0.00002941
     atom   60 type  2   force =    -0.00021608   -0.00004520    0.00016371
[...]
     atom  133 type  2   force =    -0.00000497   -0.00000621    0.00148807
     atom  134 type  2   force =     0.00001267   -0.00003239   -0.00004401
     atom  135 type  2   force =     0.00057572   -0.00018230    0.00044104
     atom  136 type  1   force =    -0.00025619    0.00032692   -0.00005183
     atom  137 type  1   force =     0.00000096   -0.00000521    0.00189677
     atom  138 type  1   force =     0.00002725   -0.00001478    0.00000593
     atom  139 type  2   force =     0.00000127   -0.00000270   -0.00327958
     atom  140 type  2   force =     0.00001387    0.00003600   -0.00003607
     atom  141 type  2   force =    -0.00025915    0.00034251    0.00010884
     atom  142 type  2   force =    -0.00000920   -0.00001416    0.00147490
     atom  143 type  2   force =    -0.00001624   -0.00001546    0.00004326
     atom  144 type  2   force =    -0.00021812    0.00037220   -0.00021775
     atom  145 type  3   force =    -0.00071981    0.00063784    0.00017577
     atom  146 type  4   force =     0.00017330    0.00042761    0.00036778
     atom  147 type  3   force =     0.00011061    0.00043352   -0.00002939

     Total force =     0.003329     Total SCF correction =     0.000638
     SCF correction compared to forces is large: reduce conv_thr to get better values
     Energy error            =      3.1E-05 Ry
     Gradient error          =      7.4E-04 Ry/Bohr

     bfgs converged in  42 scf cycles and  41 bfgs steps
     (criteria: energy <  1.0E-04 Ry, force <  1.0E-03 Ry/Bohr)

     End of BFGS Geometry Optimization

     Final energy             =  -27706.4565339870 Ry

     File ./outdir/pwscf.bfgs deleted, as requested
Begin final coordinates

ATOMIC_POSITIONS (angstrom)
Mo               1.5870917455        2.7139685714        6.0991275566
Mo               1.5769197498        0.9104407117       -6.0872367793    0   0   0
Mo               0.0010524869        1.8205933135       -0.0047066918
S                0.0000044503        0.0000077495       -7.6506323570    0   0   0
S                1.5780676099        0.9102525289       -1.5699200676
S                0.0237205335        1.8157492161        4.5111749079
S                0.0000053241        0.0000068460       -4.5222282367    0   0   0
S                1.5769443658        0.9087701915        1.5628473382
S               -0.0061691068        1.8106782992        7.6533804697
Mo              -0.0008233229        5.4600310745        6.0945143742
Mo               0.0000011799        3.6417399547       -6.0872367793    0   0   0
Mo              -1.5757067815        4.5519505919       -0.0035100692
S               -1.5769141197        2.7313069925       -7.6506323570    0   0   0
S                0.0011525416        3.6422579147       -1.5692662197
S               -1.5539660268        4.5480299310        4.5052876173
S               -1.5769132459        2.7313060890       -4.5222282367    0   0   0
S                0.0015201561        3.6408796852        1.5638330091
S               -1.5773298526        4.5304081115        7.6489930702
Mo              -1.5579118874        8.1894825666        6.0819237876
Mo              -1.5769173901        6.3730391977       -6.0872367793    0   0   0
Mo              -3.1534254351        7.2830883028       -0.0032279191
S               -3.1538326896        5.4626062355       -7.6506323570    0   0   0
S               -1.5758016013        6.3732550472       -1.5680730031
S               -3.1567112420        7.2881629121        4.5405826657
S               -3.1538318159        5.4626053320       -4.5222282367    0   0   0
S               -1.5776648444        6.3723673051        1.5645456873
S               -3.0650941506        7.2254285624        7.7018526858
Mo               3.1697722366        0.0003291964        6.0918571852
Mo              -3.1538359601        9.1043384407       -6.0872367793    0   0   0
Mo              -4.7300199028       10.0142348190       -0.0048752317
S               -4.7307512596        8.1939054785       -7.6506323570    0   0   0
S               -3.1521806699        9.1038229887       -1.5688965915
S               -4.7139933193        9.9929179807        4.5464468148
S               -4.7307503859        8.1939045750       -4.5222282367    0   0   0
S               -3.1542237764        9.1038636684        1.5637440109
S               -4.7227329588       10.0938318089        7.7179064756
Mo               4.7403451361        2.6965293316        6.0647626410
Mo               4.7307503218        0.9104407117       -6.0872367793    0   0   0
Mo               3.1541502246        1.8202496615       -0.0031534326
S                3.1538350223        0.0000077495       -7.6506323570    0   0   0
S                4.7318661967        0.9100322066       -1.5675362390
S                3.1503990441        1.8056238336        4.5109525820
S                3.1538358961        0.0000068460       -4.5222282367    0   0   0
S                4.7305159720        0.9100028453        1.5647920419
S                3.1774811543        1.8197842500        7.6572441263
Mo               3.1656019985        5.4553495858        6.1187046621
Mo               3.1538317519        3.6417399547       -6.0872367793    0   0   0
Mo               1.5776424735        4.5518753858       -0.0030914393
S                1.5769164523        2.7313069925       -7.6506323570    0   0   0
S                3.1549317911        3.6417146821       -1.5679874641
S                1.6017495497        4.5535020046        4.5636795108
S                1.5769173261        2.7313060890       -4.5222282367    0   0   0
S                3.1531353712        3.6403992399        1.5645690573
S                1.4947069773        4.4948815319        7.7389725218
Mo               1.5611372707        8.2036293878        6.0604771669
Mo               1.5769131819        6.3730391977       -6.0872367793    0   0   0
Mo               0.0004128519        7.2830094301       -0.0013920135
S               -0.0000021176        5.4626062355       -7.6506323570    0   0   0
S                1.5775900066        6.3735830118       -1.5671210660
S               -0.0042437173        7.2679353218        4.5037060112
[...]
S                6.3076599001        5.4626053320       -4.5222282367    0   0   0
S                7.8854619433        6.3733780166        1.5648735482
S                6.1748954850        7.1941257657        7.6110719293
Mo               0.0066909112        0.0004951322        6.0819461682
Mo               6.3076557559        9.1043384407       -6.0872367793    0   0   0
Mo               4.7316803591       10.0143226067       -0.0032661476
S                4.7307404564        8.1939054785       -7.6506323570    0   0   0
S                6.3077533447        9.1030235698       -1.5690324834
S                4.7462733669       10.0254401775        4.4871146839
S                4.7307413301        8.1939045750       -4.5222282367    0   0   0
S                6.3095297184        9.1047242532        1.5631742729
S                4.7345315273       10.0215461728        7.6335836303
Pt               3.2717784331        5.4707051586        8.9073657963
Pd               5.9378761018        5.9988967524        9.5378666354
Pt              -4.8804303243        8.0654467263        8.9393149799
End final coordinates

     Writing all to output data dir ./outdir/pwscf.save/ :
     XML data file, charge density, pseudopotentials, collected wavefunctions

     General routines

     Parallel routines

   This run was terminated on:  16: 9:10   2Apr2024

   JOB DONE.