     Program PWSCF v.7.2 starts on  8Apr2024 at 14:41:30

     Waiting for input...
     Reading input from standard input
Warning: card &CELL ignored
Warning: card / ignored

     Current dimensions of program PWSCF are:
     Max number of different atomic species (ntypx) = 10
     Max number of k-points (npk) =  40000
     Max angular momentum in pseudopotentials (lmaxx) =  4
     file Mo.pbe-spn-kjpaw_psl.1.0.0.UPF: wavefunction(s)  4S 4D renormalized
     file C.pbe-n-kjpaw_psl.1.0.0.UPF: wavefunction(s)  2S 2P renormalized
     Found identity + (  0.0000 -0.5000  0.0000) symmetry
     This is a supercell, fractional translations are disabled

     R & G space division:  proc/nbgrp/npool/nimage =      36
     Subspace diagonalization in iterative solution of the eigenvalue problem:
     one sub-group per band group will be used

     Using Slab Decomposition

     bravais-lattice index     =            0
     lattice parameter (alat)  =      22.7468  a.u.
     unit-cell volume          =   19629.3349 (a.u.)^3
     number of atoms/cell      =           96
     number of atomic types    =            2
     number of electrons       =      1024.00
     number of Kohn-Sham states=          614
     kinetic-energy cutoff     =      77.0000  Ry
     charge density cutoff     =     539.0000  Ry
     scf convergence threshold =      1.0E-06
     mixing beta               =       0.2000
     number of iterations used =            8  plain     mixing
     energy convergence thresh.=      1.0E-04
     force convergence thresh. =      1.0E-03
     Exchange-correlation= SLA  PW   PBX  PBC
                           (   1   4   3   4   0   0   0)
     nstep                     =         1000

     Effective Screening Medium Method
     Boundary Conditions: Vacuum-Slab-Vacuum
     total charge in unit cell        =   0.0000
     grid points for fit at edges     =        4

     celldm(1)=  22.746779  celldm(2)=   0.000000  celldm(3)=   0.000000
     celldm(4)=   0.000000  celldm(5)=   0.000000  celldm(6)=   0.000000

     crystal axes: (cart. coord. in units of alat)
               a(1) = (   1.000000   0.000000   0.000000 )
               a(2) = (  -0.000001   0.862478   0.000000 )
               a(3) = (   0.000000   0.000000   1.933739 )

     reciprocal axes: (cart. coord. in units 2 pi/alat)
               b(1) = (  1.000000  0.000001  0.000000 )
               b(2) = (  0.000000  1.159450  0.000000 )
               b(3) = (  0.000000  0.000000  0.517133 )

     PseudoPot. # 1 for Mo read from file:
     ./pseudo/Mo.pbe-spn-kjpaw_psl.1.0.0.UPF
     MD5 check sum: 317bf72632116215fd98f72de1686f13
     Pseudo is Projector augmented-wave + core cor, Zval = 14.0
     Generated using 'atomic' code by A. Dal Corso  v.7.2
     Shape of augmentation charge: PSQ
     Using radial grid of 1229 points,  6 beta functions with:
                l(1) =   0
                l(2) =   0
                l(3) =   1
                l(4) =   1
                l(5) =   2
                l(6) =   2
     Q(r) pseudized with 0 coefficients

     PseudoPot. # 2 for C  read from file:
     ./pseudo/C.pbe-n-kjpaw_psl.1.0.0.UPF
     MD5 check sum: 6b0792899573946bb42fe395835041da
     Pseudo is Projector augmented-wave + core cor, Zval =  4.0
     Generated using 'atomic' code by A. Dal Corso  v.7.2
     Shape of augmentation charge: PSQ
     Using radial grid of 1073 points,  4 beta functions with:
                l(1) =   0
                l(2) =   0
                l(3) =   1
                l(4) =   1
     Q(r) pseudized with 0 coefficients

     atomic species   valence    mass     pseudopotential
        Mo            14.00    95.95000     Mo( 1.00)
        C              4.00    12.01100     C ( 1.00)

     No symmetry found

   Cartesian axes

     site n.     atom                  positions (alat units)
         1           Mo  tau(   1) = (   0.0614122   0.3970395   0.3437944  )
         2           Mo  tau(   2) = (   0.4385838   0.0341984   0.1445705  )
         3           Mo  tau(   3) = (   0.1885855   0.1814210   0.3405634  )
         4           Mo  tau(   4) = (   0.3114153   0.2498181   0.1478033  )
         5           Mo  tau(   5) = (   0.1885854   0.0341989   0.1478023  )
         6           Mo  tau(   6) = (   0.3114154   0.3970400   0.3405622  )
         7           Mo  tau(   7) = (   0.0614122   0.2498182   0.1445713  )
         8           Mo  tau(   8) = (   0.4385840   0.1814216   0.3437948  )
         9           C   tau(   9) = (   0.1887289   0.3234299   0.0481907  )
        10           C   tau(  10) = (   0.3112712   0.1078086   0.0481900  )
        11           C   tau(  11) = (   0.0612687   0.1078093   0.2441830  )
        12           C   tau(  12) = (   0.4387281   0.3234301   0.2441826  )
        13           Mo  tau(  13) = (   0.0614116   0.3970395  -0.0481903  )
        14           Mo  tau(  14) = (   0.4385833   0.0341984  -0.2474142  )
        15           Mo  tau(  15) = (   0.1885850   0.1814210  -0.0514213  )
        16           Mo  tau(  16) = (   0.3114148   0.2498181  -0.2441814  )
        17           Mo  tau(  17) = (   0.1885849   0.0341989  -0.2441824  )
        18           Mo  tau(  18) = (   0.3114149   0.3970400  -0.0514225  )
        19           Mo  tau(  19) = (   0.0614117   0.2498182  -0.2474134  )
        20           Mo  tau(  20) = (   0.4385835   0.1814216  -0.0481900  )
        21           C   tau(  21) = (   0.1887283   0.3234299  -0.3437940  )
        22           C   tau(  22) = (   0.3112707   0.1078086  -0.3437948  )
        23           C   tau(  23) = (   0.0612682   0.1078093  -0.1478017  )
        24           C   tau(  24) = (   0.4387276   0.3234301  -0.1478021  )
        25           Mo  tau(  25) = (   0.0614118   0.8282784   0.3437944  )
        26           Mo  tau(  26) = (   0.4385835   0.4654373   0.1445705  )
        27           Mo  tau(  27) = (   0.1885852   0.6126599   0.3405634  )
        28           Mo  tau(  28) = (   0.3114149   0.6810570   0.1478033  )
        29           Mo  tau(  29) = (   0.1885850   0.4654378   0.1478023  )
        30           Mo  tau(  30) = (   0.3114151   0.8282790   0.3405622  )
        31           Mo  tau(  31) = (   0.0614119   0.6810571   0.1445713  )
        32           Mo  tau(  32) = (   0.4385837   0.6126605   0.3437948  )
        33           C   tau(  33) = (   0.1887285   0.7546688   0.0481907  )
        34           C   tau(  34) = (   0.3112709   0.5390475   0.0481900  )
        35           C   tau(  35) = (   0.0612684   0.5390482   0.2441830  )
        36           C   tau(  36) = (   0.4387278   0.7546690   0.2441826  )
        37           Mo  tau(  37) = (   0.0614113   0.8282784  -0.0481903  )
        38           Mo  tau(  38) = (   0.4385830   0.4654373  -0.2474142  )
        39           Mo  tau(  39) = (   0.1885847   0.6126599  -0.0514213  )
        40           Mo  tau(  40) = (   0.3114144   0.6810570  -0.2441814  )
        41           Mo  tau(  41) = (   0.1885845   0.4654378  -0.2441824  )
        42           Mo  tau(  42) = (   0.3114146   0.8282790  -0.0514225  )
        43           Mo  tau(  43) = (   0.0614114   0.6810571  -0.2474134  )
        44           Mo  tau(  44) = (   0.4385832   0.6126605  -0.0481900  )
        45           C   tau(  45) = (   0.1887280   0.7546688  -0.3437940  )
        46           C   tau(  46) = (   0.3112704   0.5390476  -0.3437948  )
        47           C   tau(  47) = (   0.0612679   0.5390482  -0.1478017  )
        48           C   tau(  48) = (   0.4387273   0.7546690  -0.1478021  )
        49           Mo  tau(  49) = (   0.5614122   0.3970395   0.3437944  )
        50           Mo  tau(  50) = (   0.9385838   0.0341984   0.1445705  )
        51           Mo  tau(  51) = (   0.6885855   0.1814210   0.3405634  )
        52           Mo  tau(  52) = (   0.8114153   0.2498181   0.1478033  )
        53           Mo  tau(  53) = (   0.6885854   0.0341989   0.1478023  )
        54           Mo  tau(  54) = (   0.8114154   0.3970400   0.3405622  )
        55           Mo  tau(  55) = (   0.5614122   0.2498182   0.1445713  )
        56           Mo  tau(  56) = (   0.9385840   0.1814216   0.3437948  )
        57           C   tau(  57) = (   0.6887289   0.3234299   0.0481907  )
        58           C   tau(  58) = (   0.8112712   0.1078086   0.0481900  )
        59           C   tau(  59) = (   0.5612687   0.1078093   0.2441830  )
        60           C   tau(  60) = (   0.9387281   0.3234301   0.2441826  )
[...]
        82           C   tau(  82) = (   0.8112709   0.5390475   0.0481900  )
        83           C   tau(  83) = (   0.5612684   0.5390482   0.2441830  )
        84           C   tau(  84) = (   0.9387278   0.7546690   0.2441826  )
        85           Mo  tau(  85) = (   0.5614113   0.8282784  -0.0481903  )
        86           Mo  tau(  86) = (   0.9385830   0.4654373  -0.2474142  )
        87           Mo  tau(  87) = (   0.6885847   0.6126599  -0.0514213  )
        88           Mo  tau(  88) = (   0.8114144   0.6810570  -0.2441814  )
        89           Mo  tau(  89) = (   0.6885845   0.4654378  -0.2441824  )
        90           Mo  tau(  90) = (   0.8114146   0.8282790  -0.0514225  )
        91           Mo  tau(  91) = (   0.5614114   0.6810571  -0.2474134  )
        92           Mo  tau(  92) = (   0.9385832   0.6126605  -0.0481900  )
        93           C   tau(  93) = (   0.6887280   0.7546688  -0.3437940  )
        94           C   tau(  94) = (   0.8112704   0.5390476  -0.3437948  )
        95           C   tau(  95) = (   0.5612679   0.5390482  -0.1478017  )
        96           C   tau(  96) = (   0.9387273   0.7546690  -0.1478021  )

     DFT-D3 Dispersion Correction (3-body terms):
       Reference C6 values for interpolation:

         atom   Coordination number   C6
         C          0.000            98.23
         C          0.987            86.49
         C          1.998            58.72
         C          2.999            51.56
         C          3.984            36.41
         Mo         0.000          1691.79
         Mo         1.942          1004.01
         Mo        11.056           674.22

       Values used:

         atom   Coordination number  R0_AB[au]  C6      C8
         Mo         9.785            3.547    674.22  77634.20
         Mo        13.623            3.547    674.22  77634.20
         Mo         8.899            3.547    674.22  77634.20
         Mo        13.617            3.547    674.22  77634.20
         Mo        13.617            3.547    674.22  77634.20
         Mo         8.899            3.547    674.22  77634.20
         Mo        13.623            3.547    674.22  77634.20
         Mo         9.785            3.547    674.22  77634.20
         C          6.052            2.750     36.41   1053.14
         C          6.052            2.750     36.41   1053.14
         C          6.032            2.750     36.41   1053.14
         C          6.032            2.750     36.41   1053.14
         Mo        13.630            3.547    674.22  77634.20
         Mo        10.797            3.547    674.22  77634.20
[...]
     atom   21 type  2   force =     0.00000000    0.00000000    0.00000000
     atom   22 type  2   force =     0.00000000    0.00000000    0.00000000
     atom   23 type  2   force =     0.00000000    0.00000000    0.00000000
     atom   24 type  2   force =     0.00000000    0.00000000    0.00000000
     atom   25 type  1   force =     0.00005292   -0.00000014    0.00004394
     atom   26 type  1   force =    -0.00001119    0.00002523   -0.00001533
     atom   27 type  1   force =     0.00006797    0.00000251    0.00004805
     atom   28 type  1   force =     0.00006007   -0.00000541   -0.00001392
     atom   29 type  1   force =     0.00008013    0.00001800   -0.00002257
     atom   30 type  1   force =     0.00006912   -0.00002666    0.00003757
     atom   31 type  1   force =     0.00006904    0.00001009   -0.00001805
     atom   32 type  1   force =    -0.00000853    0.00001055    0.00001705
     atom   33 type  2   force =     0.00002310   -0.00000040   -0.00000820
     atom   34 type  2   force =     0.00001719    0.00000570   -0.00000681
     atom   35 type  2   force =     0.00002633    0.00000499    0.00000663
     atom   36 type  2   force =    -0.00000383   -0.00000623    0.00000659
     atom   37 type  1   force =     0.00000000    0.00000000    0.00000000
     atom   38 type  1   force =     0.00000000    0.00000000    0.00000000
     atom   39 type  1   force =     0.00000000    0.00000000    0.00000000
     atom   40 type  1   force =     0.00000000    0.00000000    0.00000000
     atom   41 type  1   force =     0.00000000    0.00000000    0.00000000
     atom   42 type  1   force =     0.00000000    0.00000000    0.00000000
     atom   43 type  1   force =     0.00000000    0.00000000    0.00000000
     atom   44 type  1   force =     0.00000000    0.00000000    0.00000000
     atom   45 type  2   force =     0.00000000    0.00000000    0.00000000
     atom   46 type  2   force =     0.00000000    0.00000000    0.00000000
     atom   47 type  2   force =     0.00000000    0.00000000    0.00000000
     atom   48 type  2   force =     0.00000000    0.00000000    0.00000000
     atom   49 type  1   force =    -0.00008157    0.00001803    0.00002046
     atom   50 type  1   force =    -0.00000648    0.00000322   -0.00003361
     atom   51 type  1   force =    -0.00008986   -0.00000586    0.00003755
     atom   52 type  1   force =    -0.00004731   -0.00000747   -0.00005870
     atom   53 type  1   force =    -0.00007603   -0.00000257   -0.00005842
     atom   54 type  1   force =    -0.00002608   -0.00001136    0.00004962
     atom   55 type  1   force =    -0.00003898    0.00000690   -0.00003395
     atom   56 type  1   force =     0.00002029    0.00000159    0.00004439
     atom   57 type  2   force =    -0.00001849    0.00000120   -0.00001842
     atom   58 type  2   force =    -0.00001749    0.00000017   -0.00001942
     atom   59 type  2   force =    -0.00001537   -0.00000404    0.00000103
     atom   60 type  2   force =     0.00000200   -0.00000378    0.00000348
[...]
     atom   82 type  2   force =    -0.00002012    0.00000363   -0.00002055
     atom   83 type  2   force =    -0.00002675    0.00000412    0.00000269
     atom   84 type  2   force =     0.00000497    0.00000489    0.00000283
     atom   85 type  1   force =     0.00000000    0.00000000    0.00000000
     atom   86 type  1   force =     0.00000000    0.00000000    0.00000000
     atom   87 type  1   force =     0.00000000    0.00000000    0.00000000
     atom   88 type  1   force =     0.00000000    0.00000000    0.00000000
     atom   89 type  1   force =     0.00000000    0.00000000    0.00000000
     atom   90 type  1   force =     0.00000000    0.00000000    0.00000000
     atom   91 type  1   force =     0.00000000    0.00000000    0.00000000
     atom   92 type  1   force =     0.00000000    0.00000000    0.00000000
     atom   93 type  2   force =     0.00000000    0.00000000    0.00000000
     atom   94 type  2   force =     0.00000000    0.00000000    0.00000000
     atom   95 type  2   force =     0.00000000    0.00000000    0.00000000
     atom   96 type  2   force =     0.00000000    0.00000000    0.00000000

     DFT-D3 dispersion contribution to forces:
     atom    1 type  1   force =     0.00021075   -0.00015600   -0.00668075
     atom    2 type  1   force =     0.00016423   -0.00001596   -0.00358575
     atom    3 type  1   force =     0.00016484    0.00014000   -0.00683140
     atom    4 type  1   force =     0.00011968    0.00002475   -0.00338351
     atom    5 type  1   force =    -0.00011963    0.00002477   -0.00338356
     atom    6 type  1   force =    -0.00016477    0.00013995   -0.00683141
     atom    7 type  1   force =    -0.00016420   -0.00001598   -0.00358581
     atom    8 type  1   force =    -0.00021073   -0.00015598   -0.00668078
     atom    9 type  2   force =    -0.00003172   -0.00000240   -0.00006671
     atom   10 type  2   force =     0.00003174   -0.00000241   -0.00006671
     atom   11 type  2   force =    -0.00000950    0.00001238   -0.00208281
     atom   12 type  2   force =     0.00000950    0.00001236   -0.00208281
     atom   13 type  1   force =    -0.00000236    0.00000750    0.00284606
     atom   14 type  1   force =     0.00002762   -0.00004480    0.00610513
     atom   15 type  1   force =     0.00005538   -0.00001581    0.00245072
     atom   16 type  1   force =    -0.00002956    0.00003715    0.00649961
     atom   17 type  1   force =     0.00002956    0.00003716    0.00649962
     atom   18 type  1   force =    -0.00005537   -0.00001580    0.00245077
     atom   19 type  1   force =    -0.00002761   -0.00004483    0.00610512
     atom   20 type  1   force =     0.00000238    0.00000749    0.00284607
     atom   21 type  2   force =     0.00002205    0.00001447    0.00310517
     atom   22 type  2   force =    -0.00002203    0.00001447    0.00310518
     atom   23 type  2   force =     0.00008137   -0.00000123    0.00162429
     atom   24 type  2   force =    -0.00008137   -0.00000122    0.00162429
     atom   25 type  1   force =     0.00021075   -0.00015596   -0.00668076
     atom   26 type  1   force =     0.00016423   -0.00001599   -0.00358574
     atom   27 type  1   force =     0.00016484    0.00013997   -0.00683139
     atom   28 type  1   force =     0.00011968    0.00002474   -0.00338353
     atom   29 type  1   force =    -0.00011963    0.00002475   -0.00338356
     atom   30 type  1   force =    -0.00016478    0.00014002   -0.00683141
     atom   31 type  1   force =    -0.00016419   -0.00001597   -0.00358579
     atom   32 type  1   force =    -0.00021073   -0.00015602   -0.00668076
     atom   33 type  2   force =    -0.00003171   -0.00000240   -0.00006672
     atom   34 type  2   force =     0.00003174   -0.00000242   -0.00006672
     atom   35 type  2   force =    -0.00000949    0.00001236   -0.00208281
     atom   36 type  2   force =     0.00000950    0.00001237   -0.00208282
     atom   37 type  1   force =    -0.00000236    0.00000751    0.00284605
     atom   38 type  1   force =     0.00002762   -0.00004480    0.00610514
     atom   39 type  1   force =     0.00005539   -0.00001582    0.00245070
     atom   40 type  1   force =    -0.00002956    0.00003714    0.00649962
     atom   41 type  1   force =     0.00002957    0.00003716    0.00649963
     atom   42 type  1   force =    -0.00005537   -0.00001581    0.00245075
     atom   43 type  1   force =    -0.00002761   -0.00004483    0.00610511
     atom   44 type  1   force =     0.00000238    0.00000748    0.00284605
     atom   45 type  2   force =     0.00002205    0.00001447    0.00310517
     atom   46 type  2   force =    -0.00002203    0.00001447    0.00310518
     atom   47 type  2   force =     0.00008137   -0.00000123    0.00162429
     atom   48 type  2   force =    -0.00008137   -0.00000122    0.00162429
     atom   49 type  1   force =     0.00021073   -0.00015600   -0.00668077
     atom   50 type  1   force =     0.00016420   -0.00001594   -0.00358578
     atom   51 type  1   force =     0.00016477    0.00014001   -0.00683141
     atom   52 type  1   force =     0.00011963    0.00002474   -0.00338354
     atom   53 type  1   force =    -0.00011969    0.00002478   -0.00338353
     atom   54 type  1   force =    -0.00016484    0.00013994   -0.00683141
     atom   55 type  1   force =    -0.00016422   -0.00001598   -0.00358575
     atom   56 type  1   force =    -0.00021075   -0.00015599   -0.00668075
     atom   57 type  2   force =    -0.00003173   -0.00000240   -0.00006671
     atom   58 type  2   force =     0.00003172   -0.00000240   -0.00006671
     atom   59 type  2   force =    -0.00000950    0.00001238   -0.00208281
     atom   60 type  2   force =     0.00000949    0.00001236   -0.00208281
[...]
     atom   82 type  2   force =     0.00003172   -0.00000242   -0.00006672
     atom   83 type  2   force =    -0.00000950    0.00001237   -0.00208280
     atom   84 type  2   force =     0.00000950    0.00001237   -0.00208282
     atom   85 type  1   force =    -0.00000237    0.00000750    0.00284606
     atom   86 type  1   force =     0.00002761   -0.00004480    0.00610511
     atom   87 type  1   force =     0.00005536   -0.00001582    0.00245071
     atom   88 type  1   force =    -0.00002958    0.00003715    0.00649960
     atom   89 type  1   force =     0.00002954    0.00003716    0.00649963
     atom   90 type  1   force =    -0.00005539   -0.00001580    0.00245075
     atom   91 type  1   force =    -0.00002762   -0.00004484    0.00610514
     atom   92 type  1   force =     0.00000237    0.00000749    0.00284604
     atom   93 type  2   force =     0.00002204    0.00001447    0.00310517
     atom   94 type  2   force =    -0.00002203    0.00001447    0.00310518
     atom   95 type  2   force =     0.00008137   -0.00000123    0.00162430
     atom   96 type  2   force =    -0.00008137   -0.00000122    0.00162429

     Total force =     0.004014     Total SCF correction =     0.000409
     SCF correction compared to forces is large: reduce conv_thr to get better values

     Computing stress (Cartesian axis) and pressure

     negative rho (up, down):  1.141E-03 0.000E+00
          total   stress  (Ry/bohr**3)                   (kbar)     P=      -21.63
  -0.00022109  -0.00000000   0.00000000          -32.52       -0.00        0.00
  -0.00000000  -0.00022001   0.00000000           -0.00      -32.36        0.00
   0.00000000   0.00000000   0.00000000            0.00        0.00        0.00

     Energy error            =      5.8E-05 Ry
     Gradient error          =      6.5E-04 Ry/Bohr

     bfgs converged in  15 scf cycles and  14 bfgs steps
     (criteria: energy <  1.0E-04 Ry, force <  1.0E-03 Ry/Bohr)

     End of BFGS Geometry Optimization

     Final energy             =  -23880.7038303361 Ry

     File ./outdir/pwscf.bfgs deleted, as requested
Begin final coordinates

ATOMIC_POSITIONS (angstrom)
Mo            0.8519091997        4.6989243457        4.0205087231
Mo            5.2841814729        0.4405061662        1.7617683299
Mo            2.3412305877        2.2661891479        3.9535578831
Mo            3.7389355485        3.0039662668        1.7895545073
Mo            2.2795816636        0.4085336069        1.7895654895
Mo            3.6772981801        4.8615778350        3.9535778986
Mo            0.7343359804        3.0359492399        1.7617931480
Mo            5.1666100173        2.1034919482        4.0205390648
C             2.2591068007        3.8924250837        0.5627809130
C             3.7594107839        1.2969830823        0.5627854514
C             0.7699194117        1.3060920946        3.0085339516
C             5.2486026701        3.9015142708        3.0085375771
Mo            0.7392167442        4.7791953004       -0.5800706173    0   0   0
Mo            5.2792612426        0.4116487985       -2.9781440869    0   0   0
Mo            2.2700124587        2.1837783271       -0.6189623920    0   0   0
Mo            3.7485236236        3.0070800129       -2.9392308347    0   0   0
Mo            2.2700105426        0.4116548508       -2.9392421924    0   0   0
Mo            3.7485255320        4.7792017265       -0.6189764629    0   0   0
Mo            0.7392177667        3.0070811614       -2.9781344898    0   0   0
Mo            5.2792636652        2.1837859330       -0.5800662869    0   0   0
C             2.2717377014        3.8931506703       -4.1382749192    0   0   0
C             3.7467898018        1.2977009536       -4.1382840371    0   0   0
C             0.7374903379        1.2977088082       -1.7791006817    0   0   0
C             5.2809983604        3.8931527405       -1.7791049444    0   0   0
Mo            0.8519037902        9.8898020677        4.0205138977
Mo            5.2841805566        5.6313692508        1.7617626237
Mo            2.3412313947        7.4570375954        3.9535452388
Mo            3.7389388685        8.1948161058        1.7895589565
Mo            2.2795829686        5.5993929833        1.7895629690
Mo            3.6773013195       10.0524648057        3.9535759693
Mo            0.7343339418        8.2268063242        1.7617780801
Mo            5.1666019028        7.2943362019        4.0205159001
C             2.2590979934        9.0832857011        0.5627831175
C             3.7594060929        6.4878400538        0.5627920283
C             0.7699169661        6.4969404355        3.0085320331
C             5.2485952810        9.0923679421        3.0085444998
Mo            0.7392125303        9.9700514394       -0.5800706173    0   0   0
Mo            5.2792570287        5.6025049375       -2.9781440869    0   0   0
Mo            2.2700082447        7.3746344661       -0.6189623920    0   0   0
Mo            3.7485194097        8.1979361519       -2.9392308347    0   0   0
Mo            2.2700063286        5.6025109898       -2.9392421924    0   0   0
Mo            3.7485213181        9.9700578655       -0.6189764629    0   0   0
Mo            0.7392135528        8.1979373004       -2.9781344898    0   0   0
Mo            5.2792594512        7.3746420720       -0.5800662869    0   0   0
C             2.2717334874        9.0840068093       -4.1382749192    0   0   0
C             3.7467855878        6.4885570926       -4.1382840371    0   0   0
C             0.7374861240        6.4885649472       -1.7791006817    0   0   0
C             5.2809941464        9.0840088795       -1.7791049444    0   0   0
Mo            6.8704427480        4.6989254900        4.0205294763
Mo           11.3027111809        0.4405132347        1.7617834988
Mo            8.3597404456        2.2661986293        3.9535846946
Mo            9.7574692744        3.0039590707        1.7895707252
Mo            8.2981117281        0.4085395061        1.7895547277
Mo            9.6958141852        4.8615646921        3.9535636685
Mo            6.7528735175        3.0359546903        1.7617657104
Mo           11.1851394535        2.1034931561        4.0205053401
C             8.2776348689        3.8924259634        0.5627755356
C             9.7779473871        1.2969815547        0.5627956661
C             6.7884557633        1.3060926831        3.0085298267
C            11.2671231759        3.9015153422        3.0085381623
[...]
C             9.7779411017        6.4878362936        0.5627861918
C             6.7884505775        6.4969373042        3.0085285448
C            11.2671198127        9.0923709643        3.0085450725
Mo            6.7577511513        9.9700514394       -0.5800706173    0   0   0
Mo           11.2977956497        5.6025049375       -2.9781440869    0   0   0
Mo            8.2885468657        7.3746344661       -0.6189623920    0   0   0
Mo            9.7670580307        8.1979361519       -2.9392308347    0   0   0
Mo            8.2885449496        5.6025109898       -2.9392421924    0   0   0
Mo            9.7670599391        9.9700578655       -0.6189764629    0   0   0
Mo            6.7577521738        8.1979373004       -2.9781344898    0   0   0
Mo           11.2977980722        7.3746420720       -0.5800662869    0   0   0
C             8.2902721084        9.0840068093       -4.1382749192    0   0   0
C             9.7653242088        6.4885570926       -4.1382840371    0   0   0
C             6.7560247450        6.4885649472       -1.7791006817    0   0   0
C            11.2995327674        9.0840088795       -1.7791049444    0   0   0
End final coordinates

     Writing all to output data dir ./outdir/pwscf.save/

     General routines

     Parallel routines

   This run was terminated on:  10:52:11   9Apr2024

   JOB DONE.
Application 12038113 resources: utime ~2578872s, stime ~36060s, Rss ~1309908, inblocks ~0, outblocks ~20933240