     Program PWSCF v.7.2 starts on 27Aug2023 at 19:19:44

     Waiting for input...
     Reading input from standard input
Warning: card &CELL ignored
Warning: card / ignored

     Current dimensions of program PWSCF are:
     Max number of different atomic species (ntypx) = 10
     Max number of k-points (npk) =  40000
     Max angular momentum in pseudopotentials (lmaxx) =  4
     file Mo.pbe-spn-kjpaw_psl.1.0.0.UPF: wavefunction(s)  4S 4D renormalized
     file S.pbe-n-kjpaw_psl.1.0.0.UPF: wavefunction(s)  3S 3P renormalized
     file Pd.pbe-spn-kjpaw_psl.1.0.0.UPF: wavefunction(s)  4S 5S 4D renormalized
     file H.pbe-kjpaw_psl.1.0.0.UPF: wavefunction(s)  1S renormalized

     R & G space division:  proc/nbgrp/npool/nimage =      36
     Subspace diagonalization in iterative solution of the eigenvalue problem:
     one sub-group per band group will be used

     Using Slab Decomposition

     bravais-lattice index     =            0
     lattice parameter (alat)  =      23.8395  a.u.
     unit-cell volume          =   28182.8498 (a.u.)^3
     number of atoms/cell      =          146
     number of atomic types    =            4
     number of electrons       =      1267.00
     number of Kohn-Sham states=          761
     kinetic-energy cutoff     =      77.0000  Ry
     charge density cutoff     =     539.0000  Ry
     scf convergence threshold =      1.0E-06
     mixing beta               =       0.2000
     number of iterations used =            8  plain     mixing
     energy convergence thresh.=      1.0E-04
     force convergence thresh. =      1.0E-03
     Exchange-correlation= SLA  PW   PBX  PBC
                           (   1   4   3   4   0   0   0)
     nstep                     =         1000

     Effective Screening Medium Method
     Boundary Conditions: Vacuum-Slab-Vacuum
     total charge in unit cell        =   0.0000
     grid points for fit at edges     =        4

     celldm(1)=  23.839504  celldm(2)=   0.000000  celldm(3)=   0.000000
     celldm(4)=   0.000000  celldm(5)=   0.000000  celldm(6)=   0.000000

     crystal axes: (cart. coord. in units of alat)
               a(1) = (   1.000000   0.000000   0.000000 )
               a(2) = (  -0.500001   0.866026   0.000000 )
               a(3) = (   0.000000   0.000000   2.401941 )

     reciprocal axes: (cart. coord. in units 2 pi/alat)
               b(1) = (  1.000000  0.577351  0.000000 )
               b(2) = (  0.000000  1.154700  0.000000 )
               b(3) = (  0.000000  0.000000  0.416330 )

     PseudoPot. # 1 for Mo read from file:
     ./pseudo/Mo.pbe-spn-kjpaw_psl.1.0.0.UPF
     MD5 check sum: 317bf72632116215fd98f72de1686f13
     Pseudo is Projector augmented-wave + core cor, Zval = 14.0
     Generated using 'atomic' code by A. Dal Corso  v.7.2
     Shape of augmentation charge: PSQ
     Using radial grid of 1229 points,  6 beta functions with:
                l(1) =   0
                l(2) =   0
                l(3) =   1
                l(4) =   1
                l(5) =   2
                l(6) =   2
     Q(r) pseudized with 0 coefficients

     PseudoPot. # 2 for S  read from file:
     ./pseudo/S.pbe-n-kjpaw_psl.1.0.0.UPF
     MD5 check sum: 8b7b5302570d38d5e87fed6a1065abda
     Pseudo is Projector augmented-wave + core cor, Zval =  6.0
     Generated using 'atomic' code by A. Dal Corso  v.7.2
     Shape of augmentation charge: PSQ
     Using radial grid of 1151 points,  6 beta functions with:
                l(1) =   0
                l(2) =   0
                l(3) =   1
                l(4) =   1
                l(5) =   2
                l(6) =   2
     Q(r) pseudized with 0 coefficients

     PseudoPot. # 3 for Pd read from file:
     ./pseudo/Pd.pbe-spn-kjpaw_psl.1.0.0.UPF
     MD5 check sum: a60571a671f2502b8a6a4569d20a6edb
     Pseudo is Projector augmented-wave + core cor, Zval = 18.0
     Generated using 'atomic' code by A. Dal Corso  v.7.2
     Shape of augmentation charge: PSQ
     Using radial grid of 1235 points,  6 beta functions with:
                l(1) =   0
                l(2) =   0
                l(3) =   1
                l(4) =   1
                l(5) =   2
                l(6) =   2
     Q(r) pseudized with 0 coefficients

     PseudoPot. # 4 for H  read from file:
     ./pseudo/H.pbe-kjpaw_psl.1.0.0.UPF
     MD5 check sum: b3cb3c48ee3b58cc53e4d592112d0ca6
     Pseudo is Projector augmented-wave, Zval =  1.0
     Generated using 'atomic' code by A. Dal Corso  v.7.2
     Shape of augmentation charge: PSQ
     Using radial grid of  929 points,  2 beta functions with:
                l(1) =   0
                l(2) =   0
     Q(r) pseudized with 0 coefficients

     atomic species   valence    mass     pseudopotential
        Mo            14.00    95.95000     Mo( 1.00)
        S              6.00    32.06000     S ( 1.00)
        Pd            18.00   106.42000     Pd( 1.00)
        H              1.00     1.00800     H ( 1.00)

     No symmetry found

   Cartesian axes

     site n.     atom                  positions (alat units)
         1           Mo  tau(   1) = (   0.1244805   0.2154429   0.4826124  )
         2           Mo  tau(   2) = (   0.1250004   0.0721694  -0.4825273  )
         3           Mo  tau(   3) = (   0.0000154   0.1443583  -0.0000534  )
         4           S   tau(   4) = (   0.0000004   0.0000006  -0.6064556  )
         5           S   tau(   5) = (   0.1249822   0.0722030  -0.1241916  )
         6           S   tau(   6) = (   0.0001873   0.1444894   0.3573292  )
         7           S   tau(   7) = (   0.0000004   0.0000005  -0.3584711  )
         8           S   tau(   8) = (   0.1250220   0.0721432   0.1241096  )
         9           S   tau(   9) = (  -0.0009222   0.1433430   0.6062350  )
        10           Mo  tau(  10) = (  -0.0011812   0.4330952   0.4826123  )
        11           Mo  tau(  11) = (   0.0000001   0.2886759  -0.4825273  )
        12           Mo  tau(  12) = (  -0.1249761   0.3608493  -0.0000533  )
        13           S   tau(  13) = (  -0.1249999   0.2165071  -0.6064556  )
        14           S   tau(  14) = (   0.0000232   0.2886904  -0.1241345  )
        15           S   tau(  15) = (  -0.1247753   0.3609305   0.3573291  )
        16           S   tau(  16) = (  -0.1249998   0.2165070  -0.3584711  )
        17           S   tau(  17) = (   0.0000901   0.2887289   0.1242236  )
        18           S   tau(  18) = (  -0.1263226   0.3605428   0.6062351  )
        19           Mo  tau(  19) = (  -0.1251400   0.6495983   0.4819363  )
        20           Mo  tau(  20) = (  -0.1250002   0.5051824  -0.4825273  )
        21           Mo  tau(  21) = (  -0.2500026   0.5773383  -0.0001491  )
        22           S   tau(  22) = (  -0.2500002   0.4330136  -0.6064556  )
        23           S   tau(  23) = (  -0.1249812   0.5051509  -0.1241919  )
        24           S   tau(  24) = (  -0.2500015   0.5775831   0.3575295  )
        25           S   tau(  25) = (  -0.2500001   0.4330135  -0.3584711  )
        26           S   tau(  26) = (  -0.1250129   0.5052153   0.1241101  )
        27           S   tau(  27) = (  -0.2500018   0.5771934   0.6060379  )
        28           Mo  tau(  28) = (   0.2499987  -0.0001601   0.4819365  )
        29           Mo  tau(  29) = (  -0.2500004   0.7216889  -0.4825273  )
        30           Mo  tau(  30) = (  -0.3750135   0.7938631  -0.0001491  )
        31           S   tau(  31) = (  -0.3750004   0.6495201  -0.6064556  )
        32           S   tau(  32) = (  -0.2500026   0.7216883  -0.1242347  )
        33           S   tau(  33) = (  -0.3747997   0.7937400   0.3575295  )
        34           S   tau(  34) = (  -0.3750004   0.6495200  -0.3584711  )
        35           S   tau(  35) = (  -0.2500029   0.7216883   0.1240299  )
        36           S   tau(  36) = (  -0.3751376   0.7939346   0.6060379  )
        37           Mo  tau(  37) = (   0.3755166   0.2154425   0.4826119  )
        38           Mo  tau(  38) = (   0.3750004   0.0721694  -0.4825273  )
        39           Mo  tau(  39) = (   0.2499990   0.1443474  -0.0000968  )
        40           S   tau(  40) = (   0.2500004   0.0000006  -0.6064556  )
        41           S   tau(  41) = (   0.3750152   0.0722028  -0.1241921  )
        42           S   tau(  42) = (   0.2499983   0.1443201   0.3580593  )
        43           S   tau(  43) = (   0.2500004   0.0000005  -0.3584711  )
        44           S   tau(  44) = (   0.3749754   0.0721432   0.1241106  )
        45           S   tau(  45) = (   0.2499987   0.1437775   0.6065499  )
        46           Mo  tau(  46) = (   0.2499984   0.4330123   0.4872880  )
        47           Mo  tau(  47) = (   0.2500001   0.2886759  -0.4825273  )
        48           Mo  tau(  48) = (   0.1250277   0.3608616  -0.0000572  )
        49           S   tau(  49) = (   0.1250001   0.2165071  -0.6064556  )
        50           S   tau(  50) = (   0.2499987   0.2886898  -0.1241693  )
        51           S   tau(  51) = (   0.1266397   0.3617911   0.3615924  )
        52           S   tau(  52) = (   0.1250002   0.2165070  -0.3584711  )
        53           S   tau(  53) = (   0.2499988   0.2886671   0.1241958  )
        54           S   tau(  54) = (   0.1173054   0.3564020   0.6108885  )
        55           Mo  tau(  55) = (   0.1243363   0.6504991   0.4826116  )
        56           Mo  tau(  56) = (   0.1249998   0.5051824  -0.4825273  )
        57           Mo  tau(  57) = (   0.0000060   0.5773464  -0.0000969  )
        58           S   tau(  58) = (  -0.0000002   0.4330136  -0.6064556  )
        59           S   tau(  59) = (   0.1250101   0.5051751  -0.1241696  )
        60           S   tau(  60) = (  -0.0000165   0.5773581   0.3580590  )
[...]
       132           S   tau( 132) = (   0.5000130   0.5773585   0.3580587  )
       133           S   tau( 133) = (   0.4999999   0.4330135  -0.3584711  )
       134           S   tau( 134) = (   0.6250081   0.5052147   0.1241104  )
       135           S   tau( 135) = (   0.5004826   0.5776298   0.6065487  )
       136           Mo  tau( 136) = (  -0.0000706   0.0000401   0.4813070  )
       137           Mo  tau( 137) = (   0.4999996   0.7216889  -0.4825273  )
       138           Mo  tau( 138) = (   0.3749881   0.7938314  -0.0000535  )
       139           S   tau( 139) = (   0.3749996   0.6495201  -0.6064556  )
       140           S   tau( 140) = (   0.4999594   0.7216844  -0.1241918  )
       141           S   tau( 141) = (   0.3749610   0.7936184   0.3573285  )
       142           S   tau( 142) = (   0.3749996   0.6495200  -0.3584711  )
       143           S   tau( 143) = (   0.5000310   0.7216802   0.1241101  )
       144           S   tau( 144) = (   0.3753979   0.7951517   0.6062337  )
       145           Pd  tau( 145) = (   0.2499985   0.4330123   0.7148096  )
       146           H   tau( 146) = (   0.1873119   0.6907077   0.6720003  )

     DFT-D3 Dispersion Correction (3-body terms):
       Reference C6 values for interpolation:

         atom   Coordination number   C6
         H          0.912             6.05
         H          0.000            15.18
         S          0.000           268.01
[...]
     atom   13 type  2   force =     0.00000000    0.00000000    0.00000000
     atom   14 type  2   force =     0.00000245    0.00000132   -0.00002314
     atom   15 type  2   force =     0.00000251   -0.00000350    0.00002966
     atom   16 type  2   force =     0.00000000    0.00000000    0.00000000
     atom   17 type  2   force =    -0.00000016   -0.00000162   -0.00002676
     atom   18 type  2   force =     0.00000842    0.00000265    0.00002110
     atom   19 type  1   force =     0.00003364   -0.00001583    0.00013551
     atom   20 type  1   force =     0.00000000    0.00000000    0.00000000
     atom   21 type  1   force =    -0.00000800   -0.00000544   -0.00009593
     atom   22 type  2   force =     0.00000000    0.00000000    0.00000000
     atom   23 type  2   force =     0.00000277    0.00000049   -0.00002550
     atom   24 type  2   force =     0.00000077   -0.00000601    0.00002099
     atom   25 type  2   force =     0.00000000    0.00000000    0.00000000
     atom   26 type  2   force =    -0.00000198   -0.00000308   -0.00002707
     atom   27 type  2   force =     0.00001202    0.00000068    0.00003159
     atom   28 type  1   force =    -0.00002187   -0.00000339    0.00012077
     atom   29 type  1   force =     0.00000000    0.00000000    0.00000000
     atom   30 type  1   force =    -0.00000009   -0.00000799   -0.00009768
     atom   31 type  2   force =     0.00000000    0.00000000    0.00000000
     atom   32 type  2   force =     0.00000051    0.00000043   -0.00002555
     atom   33 type  2   force =    -0.00000169    0.00000002    0.00002625
     atom   34 type  2   force =     0.00000000    0.00000000    0.00000000
     atom   35 type  2   force =    -0.00000138   -0.00000010   -0.00002923
     atom   36 type  2   force =     0.00000262   -0.00000517    0.00002733
     atom   37 type  1   force =     0.00000459    0.00003089    0.00012396
     atom   38 type  1   force =     0.00000000    0.00000000    0.00000000
     atom   39 type  1   force =    -0.00000130    0.00000648   -0.00010152
     atom   40 type  2   force =     0.00000000    0.00000000    0.00000000
     atom   41 type  2   force =    -0.00000082    0.00000095   -0.00002420
     atom   42 type  2   force =    -0.00000955    0.00000231    0.00002325
     atom   43 type  2   force =     0.00000000    0.00000000    0.00000000
     atom   44 type  2   force =    -0.00000092    0.00000113   -0.00003142
     atom   45 type  2   force =     0.00000249   -0.00000019    0.00002760
     atom   46 type  1   force =     0.00000893   -0.00003036    0.00009019
     atom   47 type  1   force =     0.00000000    0.00000000    0.00000000
     atom   48 type  1   force =     0.00000629   -0.00001114   -0.00010352
     atom   49 type  2   force =     0.00000000    0.00000000    0.00000000
     atom   50 type  2   force =     0.00000048    0.00000260   -0.00002167
     atom   51 type  2   force =     0.00000180   -0.00000405    0.00003096
     atom   52 type  2   force =     0.00000000    0.00000000    0.00000000
     atom   53 type  2   force =    -0.00000232    0.00000282   -0.00003029
     atom   54 type  2   force =    -0.00000860   -0.00000228    0.00002096
     atom   55 type  1   force =    -0.00003035    0.00003346    0.00008667
     atom   56 type  1   force =     0.00000000    0.00000000    0.00000000
     atom   57 type  1   force =     0.00000525   -0.00000695   -0.00011031
     atom   58 type  2   force =     0.00000000    0.00000000    0.00000000
     atom   59 type  2   force =    -0.00000037   -0.00000070   -0.00002471
     atom   60 type  2   force =     0.00000430    0.00000076    0.00002931
[...]
     atom  132 type  2   force =    -0.00000325   -0.00000442    0.00002417
     atom  133 type  2   force =     0.00000000    0.00000000    0.00000000
     atom  134 type  2   force =     0.00000184   -0.00000112   -0.00002774
     atom  135 type  2   force =    -0.00000255    0.00000545    0.00002965
     atom  136 type  1   force =     0.00001576   -0.00001632    0.00011326
     atom  137 type  1   force =     0.00000000    0.00000000    0.00000000
     atom  138 type  1   force =     0.00000034   -0.00001398   -0.00010002
     atom  139 type  2   force =     0.00000000    0.00000000    0.00000000
     atom  140 type  2   force =    -0.00000063   -0.00000276   -0.00002337
     atom  141 type  2   force =    -0.00000148   -0.00001174    0.00003148
     atom  142 type  2   force =     0.00000000    0.00000000    0.00000000
     atom  143 type  2   force =    -0.00000017   -0.00000474   -0.00003084
     atom  144 type  2   force =    -0.00001310   -0.00000845    0.00002537
     atom  145 type  3   force =    -0.00000955    0.00001657    0.00005303
     atom  146 type  4   force =     0.00000037   -0.00000063    0.00000135

     DFT-D3 dispersion contribution to forces:
     atom    1 type  1   force =     0.00010459    0.00014864   -0.00234834
     atom    2 type  1   force =     0.00000031   -0.00000045    0.00260849
     atom    3 type  1   force =     0.00000098    0.00000015    0.00000039
     atom    4 type  2   force =    -0.00000004   -0.00000003    0.00441216
     atom    5 type  2   force =     0.00000107   -0.00000186   -0.00004514
     atom    6 type  2   force =     0.00001100    0.00001137   -0.00014991
     atom    7 type  2   force =    -0.00000017   -0.00000115    0.00023867
     atom    8 type  2   force =     0.00000620   -0.00000042    0.00010665
     atom    9 type  2   force =     0.00014950    0.00017087   -0.00431149
     atom   10 type  1   force =     0.00024364    0.00004365   -0.00232816
     atom   11 type  1   force =     0.00000033   -0.00000028    0.00260730
     atom   12 type  1   force =    -0.00000515   -0.00001192   -0.00000960
     atom   13 type  2   force =     0.00000003   -0.00000001    0.00441195
     atom   14 type  2   force =     0.00000132   -0.00000168   -0.00004765
     atom   15 type  2   force =    -0.00000060   -0.00003802   -0.00015967
     atom   16 type  2   force =     0.00000010   -0.00000083    0.00023817
     atom   17 type  2   force =    -0.00000429   -0.00002278    0.00010470
     atom   18 type  2   force =     0.00025666    0.00004834   -0.00430918
     atom   19 type  1   force =     0.00012433   -0.00003129   -0.00253338
     atom   20 type  1   force =    -0.00000004    0.00000058    0.00260766
     atom   21 type  1   force =     0.00000089    0.00000171   -0.00002060
     atom   22 type  2   force =    -0.00000002    0.00000003    0.00441195
     atom   23 type  2   force =    -0.00000058    0.00000198   -0.00004940
     atom   24 type  2   force =     0.00000371   -0.00000504   -0.00020776
     atom   25 type  2   force =    -0.00000054    0.00000075    0.00023821
     atom   26 type  2   force =    -0.00001243    0.00000073    0.00010028
     atom   27 type  2   force =    -0.00000230   -0.00001591   -0.00439060
     atom   28 type  1   force =    -0.00000065    0.00012141   -0.00255844
     atom   29 type  1   force =    -0.00000015    0.00000041    0.00260876
     atom   30 type  1   force =     0.00000691    0.00001241   -0.00001064
     atom   31 type  2   force =     0.00000003   -0.00000001    0.00441224
     atom   32 type  2   force =     0.00000007    0.00000233   -0.00004694
     atom   33 type  2   force =     0.00001433    0.00003848   -0.00019873
     atom   34 type  2   force =    -0.00000075    0.00000043    0.00023816
     atom   35 type  2   force =     0.00000003    0.00001993    0.00009337
     atom   36 type  2   force =    -0.00007538   -0.00001506   -0.00438360
     atom   37 type  1   force =    -0.00010680    0.00014896   -0.00234629
     atom   38 type  1   force =    -0.00000006   -0.00000018    0.00260872
     atom   39 type  1   force =     0.00000103   -0.00000590    0.00000297
     atom   40 type  2   force =    -0.00000001   -0.00000006    0.00441227
     atom   41 type  2   force =    -0.00000000   -0.00000112   -0.00004465
     atom   42 type  2   force =     0.00000260    0.00002522   -0.00013144
     atom   43 type  2   force =    -0.00000022   -0.00000043    0.00023851
     atom   44 type  2   force =    -0.00000813   -0.00000105    0.00010579
     atom   45 type  2   force =    -0.00000284    0.00039987   -0.00421696
     atom   46 type  1   force =     0.00000373   -0.00009990   -0.00761885
     atom   47 type  1   force =     0.00000037   -0.00000018    0.00260821
     atom   48 type  1   force =    -0.00000671   -0.00002192   -0.00003188
     atom   49 type  2   force =    -0.00000001   -0.00000001    0.00441197
     atom   50 type  2   force =     0.00000128   -0.00000162   -0.00004855
     atom   51 type  2   force =     0.00002930   -0.00004057    0.00007260
     atom   52 type  2   force =     0.00000036   -0.00000043    0.00023834
     atom   53 type  2   force =    -0.00000123   -0.00004509    0.00009466
     atom   54 type  2   force =    -0.00098024   -0.00051620   -0.00525312
     atom   55 type  1   force =     0.00017490   -0.00013698   -0.00229960
     atom   56 type  1   force =     0.00000045    0.00000055    0.00260817
     atom   57 type  1   force =    -0.00001435    0.00000121   -0.00004249
     atom   58 type  2   force =    -0.00000000   -0.00000001    0.00441183
     atom   59 type  2   force =     0.00000083    0.00000075   -0.00005442
     atom   60 type  2   force =    -0.00002491   -0.00003037   -0.00012426
[...]
     atom  132 type  2   force =     0.00002689   -0.00003130   -0.00012639
     atom  133 type  2   force =    -0.00000054    0.00000077    0.00023819
     atom  134 type  2   force =     0.00001121    0.00000033    0.00009990
     atom  135 type  2   force =    -0.00050448   -0.00005750   -0.00421797
     atom  136 type  1   force =    -0.00007817   -0.00002249   -0.00249724
     atom  137 type  1   force =    -0.00000010   -0.00000004    0.00260922
     atom  138 type  1   force =     0.00000781    0.00002133   -0.00003621
     atom  139 type  2   force =    -0.00000002    0.00000002    0.00441221
     atom  140 type  2   force =     0.00000142    0.00000166   -0.00005056
     atom  141 type  2   force =    -0.00000640    0.00006123   -0.00011022
     atom  142 type  2   force =     0.00000000    0.00000003    0.00023840
     atom  143 type  2   force =     0.00002589    0.00002839    0.00008216
     atom  144 type  2   force =    -0.00012420   -0.00028506   -0.00427049
     atom  145 type  3   force =    -0.00002635    0.00071981    0.00207517
     atom  146 type  4   force =     0.00000066   -0.00013861   -0.00120570

     Total force =     0.003136     Total SCF correction =     0.000667
     SCF correction compared to forces is large: reduce conv_thr to get better values
     Energy error            =      2.1E-05 Ry
     Gradient error          =      7.5E-04 Ry/Bohr

     bfgs converged in  26 scf cycles and  25 bfgs steps
     (criteria: energy <  1.0E-04 Ry, force <  1.0E-03 Ry/Bohr)

     End of BFGS Geometry Optimization

     Final energy             =  -24358.2373633796 Ry

     File ./outdir/pwscf.bfgs deleted, as requested
Begin final coordinates

ATOMIC_POSITIONS (angstrom)
Mo            1.5528278359        2.7087909341        6.0553715993
Mo            1.5769197498        0.9104407117       -6.0872367793    0   0   0
Mo           -0.0011253993        1.8199022565       -0.0025348896
S             0.0000044503        0.0000077495       -7.6506323570    0   0   0
S             1.5756036149        0.9102697204       -1.5688418366
S            -0.0173954384        1.8124550892        4.4816660322
S             0.0000053241        0.0000068460       -4.5222282367    0   0   0
S             1.5758934897        0.9084780411        1.5629938153
S            -0.0199408192        1.8175630378        7.6284350300
Mo           -0.0189902250        5.4581422048        6.0782426348
Mo            0.0000011799        3.6417399547       -6.0872367793    0   0   0
Mo           -1.5779296565        4.5518285423       -0.0010534653
S            -1.5769141197        2.7313069925       -7.6506323570    0   0   0
S            -0.0011196431        3.6415728696       -1.5667939557
S            -1.5858341732        4.5580463425        4.4957317875
S            -1.5769132459        2.7313060890       -4.5222282367    0   0   0
S            -0.0005624714        3.6407209978        1.5650330367
S            -1.6007773712        4.5403082439        7.6342465229
Mo           -1.5891322140        8.1913466391        6.0788858382
Mo           -1.5769173901        6.3730391977       -6.0872367793    0   0   0
Mo           -3.1550228797        7.2826426673       -0.0026859978
S            -3.1538326896        5.4626062355       -7.6506323570    0   0   0
S            -1.5774115705        6.3719371501       -1.5669564214
S            -3.1692849750        7.2830411310        4.5106797443
S            -3.1538318159        5.4626053320       -4.5222282367    0   0   0
S            -1.5778367823        6.3736754452        1.5658879666
S            -3.1657747894        7.2728919165        7.6403646284
Mo            3.1390796613       -0.0106783527        6.0581519080
Mo           -3.1538359601        9.1043384407       -6.0872367793    0   0   0
Mo           -4.7321768524       10.0138309391       -0.0045605183
S            -4.7307512596        8.1939054785       -7.6506323570    0   0   0
S            -3.1549223622        9.1028735214       -1.5693588455
S            -4.7471662229        9.9967311500        4.4982337963
S            -4.7307503859        8.1939045750       -4.5222282367    0   0   0
S            -3.1552589027        9.1041377953        1.5624038021
S            -4.7416899811       10.0194673126        7.6354846845
Mo            4.7249051936        2.7079096960        6.0532644430
Mo            4.7307503218        0.9104407117       -6.0872367793    0   0   0
Mo            3.1527615238        1.8201096039       -0.0032912913
S             3.1538350223        0.0000077495       -7.6506323570    0   0   0
S             4.7296959220        0.9099727969       -1.5692735721
S             3.1376605356        1.8072333904        4.4864977883
S             3.1538358961        0.0000068460       -4.5222282367    0   0   0
S             4.7297292678        0.9089449821        1.5625845008
S             3.1393804333        1.8100272580        7.6187182216
Mo            3.1395327333        5.4206286490        6.0847620553
Mo            3.1538317519        3.6417399547       -6.0872367793    0   0   0
Mo            1.5762268491        4.5516147766       -0.0016096711
S             1.5769164523        2.7313069925       -7.6506323570    0   0   0
S             3.1522845110        3.6413602637       -1.5679922859
S             1.5728289987        4.5523334147        4.5198830358
S             1.5769173261        2.7313060890       -4.5222282367    0   0   0
S             3.1532595989        3.6407150560        1.5647515498
S             1.4851760798        4.4891348598        7.6679915593
Mo            1.5677217547        8.2121752814        6.1394561081
Mo            1.5769131819        6.3730391977       -6.0872367793    0   0   0
Mo           -0.0005897159        7.2826067408       -0.0017149674
S            -0.0000021176        5.4626062355       -7.6506323570    0   0   0
S             1.5756572552        6.3718090347       -1.5674747246
S             0.0090904456        7.2902720789        4.5316379080
[...]
S             6.2700244607        7.2905423082        4.5368164637
S             6.3076599001        5.4626053320       -4.5222282367    0   0   0
S             7.8823222782        6.3732740960        1.5647724853
S             6.3131140875        7.2685466843        7.6678402726
Mo           -0.0089025860        0.0042458801        6.0580472077
Mo            6.3076557559        9.1043384407       -6.0872367793    0   0   0
Mo            4.7289086029       10.0132209030       -0.0037555905
S             4.7307404564        8.1939054785       -7.6506323570    0   0   0
S             6.3060360371        9.1031333302       -1.5691509332
S             4.7122204527        9.9905736013        4.5200299883
S             4.7307413301        8.1939045750       -4.5222282367    0   0   0
S             6.3061689470        9.1034183315        1.5631235853
S             4.7336262660       10.0721918436        7.6531994636
Pd            3.1367763718        5.5380938977        8.9718742037
H             3.1326373442        8.6512750687        8.7796646138
End final coordinates

     Writing all to output data dir ./outdir/pwscf.save/

     General routines

     Parallel routines

   This run was terminated on:   3:14: 2  29Aug2023

   JOB DONE.
Application 11105376 resources: utime ~4083918s, stime ~50747s, Rss ~2389660, inblocks ~0, outblocks ~39731960