     Program PWSCF v.7.3 starts on  9Mar2024 at 13: 2:26

     Waiting for input...
     Reading input from standard input
Warning: card &CELL ignored
Warning: card / ignored

     Current dimensions of program PWSCF are:
     Max number of different atomic species (ntypx) = 10
     Max number of k-points (npk) =  40000
     Max angular momentum in pseudopotentials (lmaxx) =  4
     file Mo.pbe-spn-kjpaw_psl.1.0.0.UPF: wavefunction(s)  4S 4D renormalized
     file S.pbe-n-kjpaw_psl.1.0.0.UPF: wavefunction(s)  3S 3P renormalized
     file Pt.pbe-spfn-kjpaw_psl.1.0.0.UPF: wavefunction(s)  5P 4F renormalized
     file Pd.pbe-spn-kjpaw_psl.1.0.0.UPF: wavefunction(s)  4S 5S 4D renormalized

     R & G space division:  proc/nbgrp/npool/nimage =      36
     Subspace diagonalization in iterative solution of the eigenvalue problem:
     one sub-group per band group will be used

     Using Slab Decomposition

     bravais-lattice index     =            0
     lattice parameter (alat)  =      23.8395  a.u.
     unit-cell volume          =   28182.8498 (a.u.)^3
     number of atoms/cell      =          146
     number of atomic types    =            4
     number of electrons       =      1298.00
     number of Kohn-Sham states=          779
     kinetic-energy cutoff     =      77.0000  Ry
     charge density cutoff     =     539.0000  Ry
     scf convergence threshold =      1.0E-06
     mixing beta               =       0.2000
     number of iterations used =            8  plain     mixing
     energy convergence thresh.=      1.0E-04
     force convergence thresh. =      1.0E-03
     Exchange-correlation= SLA  PW   PBX  PBC
                           (   1   4   3   4   0   0   0)
     nstep                     =         1000

     Effective Screening Medium Method
     Boundary Conditions: Vacuum-Slab-Vacuum
     total charge in unit cell        =   0.0000
     grid points for fit at edges     =        4

     celldm(1)=  23.839504  celldm(2)=   0.000000  celldm(3)=   0.000000
     celldm(4)=   0.000000  celldm(5)=   0.000000  celldm(6)=   0.000000

     crystal axes: (cart. coord. in units of alat)
               a(1) = (   1.000000   0.000000   0.000000 )
               a(2) = (  -0.500001   0.866026   0.000000 )
               a(3) = (   0.000000   0.000000   2.401941 )

     reciprocal axes: (cart. coord. in units 2 pi/alat)
               b(1) = (  1.000000  0.577351  0.000000 )
               b(2) = (  0.000000  1.154700  0.000000 )
               b(3) = (  0.000000  0.000000  0.416330 )

     PseudoPot. # 1 for Mo read from file:
     ./pseudo/Mo.pbe-spn-kjpaw_psl.1.0.0.UPF
     MD5 check sum: 317bf72632116215fd98f72de1686f13
     Pseudo is Projector augmented-wave + core cor, Zval = 14.0
     Generated using 'atomic' code by A. Dal Corso  v.7.2
     Shape of augmentation charge: PSQ
     Using radial grid of 1229 points,  6 beta functions with:
                l(1) =   0
                l(2) =   0
                l(3) =   1
                l(4) =   1
                l(5) =   2
                l(6) =   2
     Q(r) pseudized with 0 coefficients

     PseudoPot. # 2 for S  read from file:
     ./pseudo/S.pbe-n-kjpaw_psl.1.0.0.UPF
     MD5 check sum: 8b7b5302570d38d5e87fed6a1065abda
     Pseudo is Projector augmented-wave + core cor, Zval =  6.0
     Generated using 'atomic' code by A. Dal Corso  v.7.2
     Shape of augmentation charge: PSQ
     Using radial grid of 1151 points,  6 beta functions with:
                l(1) =   0
                l(2) =   0
                l(3) =   1
                l(4) =   1
                l(5) =   2
                l(6) =   2
     Q(r) pseudized with 0 coefficients

     PseudoPot. # 3 for Pt read from file:
     ./pseudo/Pt.pbe-spfn-kjpaw_psl.1.0.0.UPF
     MD5 check sum: 620096ebf4e6ebacc94de60fd67efcb5
     Pseudo is Projector augmented-wave + core cor, Zval = 32.0
     Generated using 'atomic' code by A. Dal Corso  v.7.2
     Shape of augmentation charge: PSQ
     Using radial grid of 1277 points,  8 beta functions with:
                l(1) =   0
                l(2) =   0
                l(3) =   1
                l(4) =   1
                l(5) =   2
                l(6) =   2
                l(7) =   3
                l(8) =   3
     Q(r) pseudized with 0 coefficients

     PseudoPot. # 4 for Pd read from file:
     ./pseudo/Pd.pbe-spn-kjpaw_psl.1.0.0.UPF
     MD5 check sum: a60571a671f2502b8a6a4569d20a6edb
     Pseudo is Projector augmented-wave + core cor, Zval = 18.0
     Generated using 'atomic' code by A. Dal Corso  v.7.2
     Shape of augmentation charge: PSQ
     Using radial grid of 1235 points,  6 beta functions with:
                l(1) =   0
                l(2) =   0
                l(3) =   1
                l(4) =   1
                l(5) =   2
                l(6) =   2
     Q(r) pseudized with 0 coefficients

     atomic species   valence    mass     pseudopotential
     Mo               14.00    95.95000     Mo( 1.00)
     S                 6.00    32.06000     S ( 1.00)
     Pt               32.00   195.08400     Pt( 1.00)
     Pd               18.00   106.42000     Pd( 1.00)

     No symmetry found

   Cartesian axes

     site n.     atom                  positions (alat units)
         1        Mo     tau(   1) = (   0.1245066   0.2151403   0.4829270  )
         2        Mo     tau(   2) = (   0.1250004   0.0721694  -0.4825273  )
         3        Mo     tau(   3) = (   0.0000143   0.1443586  -0.0000404  )
         4        S      tau(   4) = (   0.0000004   0.0000006  -0.6064556  )
         5        S      tau(   5) = (   0.1249859   0.0722111  -0.1241825  )
         6        S      tau(   6) = (   0.0002990   0.1445714   0.3572522  )
         7        S      tau(   7) = (   0.0000004   0.0000005  -0.3584711  )
         8        S      tau(   8) = (   0.1250243   0.0721377   0.1241202  )
         9        S      tau(   9) = (  -0.0011552   0.1430195   0.6061730  )
        10        Mo     tau(  10) = (  -0.0014303   0.4332690   0.4829269  )
        11        Mo     tau(  11) = (   0.0000001   0.2886759  -0.4825273  )
        12        Mo     tau(  12) = (  -0.1249759   0.3608474  -0.0000404  )
        13        S      tau(  13) = (  -0.1249999   0.2165071  -0.6064556  )
        14        S      tau(  14) = (   0.0000250   0.2886908  -0.1241273  )
        15        S      tau(  15) = (  -0.1246483   0.3609863   0.3572522  )
        16        S      tau(  16) = (  -0.1249998   0.2165070  -0.3584711  )
        17        S      tau(  17) = (   0.0000923   0.2887297   0.1242244  )
        18        S      tau(  18) = (  -0.1267194   0.3605027   0.6061730  )
        19        Mo     tau(  19) = (  -0.1251617   0.6496109   0.4820319  )
        20        Mo     tau(  20) = (  -0.1250002   0.5051824  -0.4825273  )
        21        Mo     tau(  21) = (  -0.2500022   0.5773395  -0.0001503  )
        22        S      tau(  22) = (  -0.2500002   0.4330136  -0.6064556  )
        23        S      tau(  23) = (  -0.1249718   0.5051500  -0.1241823  )
        24        S      tau(  24) = (  -0.2500018   0.5776353   0.3574746  )
        25        S      tau(  25) = (  -0.2500001   0.4330135  -0.3584711  )
        26        S      tau(  26) = (  -0.1250162   0.5052198   0.1241203  )
        27        S      tau(  27) = (  -0.2500018   0.5771316   0.6060170  )
        28        Mo     tau(  28) = (   0.2499988  -0.0001852   0.4820322  )
        29        Mo     tau(  29) = (  -0.2500004   0.7216889  -0.4825273  )
        30        Mo     tau(  30) = (  -0.3750121   0.7938628  -0.0001504  )
        31        S      tau(  31) = (  -0.3750004   0.6495201  -0.6064556  )
        32        S      tau(  32) = (  -0.2500022   0.7216884  -0.1242395  )
        33        S      tau(  33) = (  -0.3747547   0.7937137   0.3574746  )
        34        S      tau(  34) = (  -0.3750004   0.6495200  -0.3584711  )
        35        S      tau(  35) = (  -0.2500023   0.7216883   0.1240244  )
        36        S      tau(  36) = (  -0.3751912   0.7939655   0.6060169  )
        37        Mo     tau(  37) = (   0.3754907   0.2151405   0.4829271  )
        38        Mo     tau(  38) = (   0.3750004   0.0721694  -0.4825273  )
        39        Mo     tau(  39) = (   0.2499984   0.1443573  -0.0000731  )
        40        S      tau(  40) = (   0.2500004   0.0000006  -0.6064556  )
        41        S      tau(  41) = (   0.3750112   0.0722112  -0.1241824  )
        42        S      tau(  42) = (   0.2499987   0.1444686   0.3583292  )
        43        S      tau(  43) = (   0.2500004   0.0000005  -0.3584711  )
        44        S      tau(  44) = (   0.3749727   0.0721378   0.1241202  )
        45        S      tau(  45) = (   0.2499989   0.1436262   0.6067914  )
        46        Mo     tau(  46) = (   0.2499982   0.4330120   0.4873213  )
        47        Mo     tau(  47) = (   0.2500001   0.2886759  -0.4825273  )
        48        Mo     tau(  48) = (   0.1250313   0.3608632  -0.0000369  )
        49        S      tau(  49) = (   0.1250001   0.2165071  -0.6064556  )
        50        S      tau(  50) = (   0.2499984   0.2886902  -0.1241509  )
        51        S      tau(  51) = (   0.1269276   0.3619573   0.3622727  )
        52        S      tau(  52) = (   0.1250002   0.2165070  -0.3584711  )
        53        S      tau(  53) = (   0.2499983   0.2886817   0.1242427  )
        54        S      tau(  54) = (   0.1143670   0.3547054   0.6129634  )
        55        Mo     tau(  55) = (   0.1240620   0.6506275   0.4829270  )
        56        Mo     tau(  56) = (   0.1249998   0.5051824  -0.4825273  )
        57        Mo     tau(  57) = (   0.0000150   0.5773409  -0.0000731  )
        58        S      tau(  58) = (  -0.0000002   0.4330136  -0.6064556  )
        59        S      tau(  59) = (   0.1250108   0.5051746  -0.1241509  )
        60        S      tau(  60) = (   0.0001121   0.5772840   0.3583290  )
[...]
       132        S      tau( 132) = (   0.4998845   0.5772841   0.3583289  )
       133        S      tau( 133) = (   0.4999999   0.4330135  -0.3584711  )
       134        S      tau( 134) = (   0.6250119   0.5052197   0.1241202  )
       135        S      tau( 135) = (   0.5006138   0.5777054   0.6067911  )
       136        Mo     tau( 136) = (  -0.0000756   0.0000425   0.4811258  )
       137        Mo     tau( 137) = (   0.4999996   0.7216889  -0.4825273  )
       138        Mo     tau( 138) = (   0.3749875   0.7938333  -0.0000404  )
       139        S      tau( 139) = (   0.3749996   0.6495201  -0.6064556  )
       140        S      tau( 140) = (   0.4999549   0.7216781  -0.1241825  )
       141        S      tau( 141) = (   0.3749453   0.7934797   0.3572516  )
       142        S      tau( 142) = (   0.3749996   0.6495200  -0.3584711  )
       143        S      tau( 143) = (   0.5000375   0.7216816   0.1241203  )
       144        S      tau( 144) = (   0.3755618   0.7955149   0.6061729  )
       145        Pt     tau( 145) = (   0.2499972   0.4330095   0.7045710  )
       146        Pd     tau( 146) = (   0.6251129   0.2164828   0.7250707  )

     DFT-D3 Dispersion Correction (3-body terms):
       Reference C6 values for interpolation:

[...]
   -40.5186 -40.4923 -40.4922 -40.4902 -40.4866 -40.4825 -40.4793 -40.4716
   -40.4672 -40.4556 -40.4503 -40.4309 -40.4227 -40.4076 -40.3999 -19.8321
   -19.8261 -19.7633 -19.7409 -19.6268 -19.6153 -19.3921 -19.3919 -19.3187
   -19.3186 -19.1967 -19.1964 -18.8164 -18.7706 -18.7666 -18.6982 -18.6796
   -18.6773 -18.6719 -18.6718 -18.6345 -18.5820 -18.5749 -18.5666 -18.5470
   -18.5437 -18.5235 -18.5196 -18.4900 -18.4646 -18.4411 -18.4303 -18.4212
   -18.3994 -18.3918 -18.3716 -18.3556 -18.3331 -18.3128 -18.2905 -18.2391
   -18.2117 -18.2072 -18.1813 -18.1689 -18.1547 -18.1119 -18.1111 -18.0898
   -18.0663 -18.0660 -18.0654 -18.0654 -18.0652 -18.0512 -18.0482 -18.0328
   -18.0163 -17.9976 -17.9916 -17.9866 -17.9834 -17.9783 -17.9775 -17.9581
   -17.9448 -17.9428 -17.9235 -17.9164 -17.9143 -17.8896 -17.8867 -17.8770
   -17.8741 -17.8711 -17.8664 -17.8267 -17.8156 -17.8146 -17.8078 -17.8021
   -17.8020 -17.7607 -17.7600 -17.7485 -17.7426 -17.7421 -17.7330 -17.7259
   -17.7255 -17.7162 -17.6971 -17.6835 -17.6816 -17.6322 -17.6162 -11.7868
   -11.6280 -11.6088 -11.5416 -11.4734 -11.4605 -11.4164 -11.4099 -11.4091
   -11.4083 -11.3955 -11.3794 -11.3675 -11.3467 -11.3171 -11.3167 -11.3077
   -11.2964 -11.2948 -11.2755 -11.2444 -11.2264 -11.2260 -11.2231 -11.1995
   -11.1949 -11.1949 -11.1502 -11.1492 -11.1441 -11.1011 -11.0985 -11.0894
   -11.0891 -11.0128 -10.9795 -10.9563 -10.9348 -10.9167 -10.9125 -10.9018
   -10.8810 -10.8581 -10.8531 -10.8484 -10.8334 -10.8309 -10.8217 -10.8179
   -10.7927 -10.7784 -10.7699 -10.7673 -10.7668 -10.7655 -10.7600 -10.7571
   -10.7497 -10.7469 -10.7062 -10.7000 -10.6988 -10.6943 -10.6641 -10.5431
   -10.5288 -10.5128 -10.4989 -10.4624 -10.4252 -10.4014 -10.3187 -10.2737
   -10.2279 -10.1556 -10.0947 -10.0892 -10.0616 -10.0535 -10.0504 -10.0198
    -9.9871  -9.9643  -9.9459  -9.9333  -9.9053  -9.8831  -9.8752  -9.8717
    -9.8658  -9.8544  -9.8419  -9.8344  -9.8261  -9.8253  -9.8165  -9.7805
    -9.7595  -9.7383  -9.7141  -9.6973  -9.6881  -9.6877  -9.6773  -9.6499
    -9.6497  -9.6468  -9.6346  -9.6317  -9.6090  -9.6037  -9.5784  -9.5668
    -9.5588  -9.5538  -9.5488  -9.4965  -9.4839  -9.4741  -9.4668  -9.4586
    -9.4557  -9.4227  -9.4214  -9.4073  -9.3960  -9.3338  -9.2853  -9.2632
    -9.2254  -9.1961  -9.1505  -9.1424  -9.1342  -9.1200  -9.1166  -9.0911
    -9.0771  -9.0729  -9.0698  -9.0462  -9.0437  -9.0007  -8.9943  -8.9849
    -8.9727  -8.9722  -8.9591  -8.9538  -8.9405  -8.9265  -8.9256  -8.9190
    -8.8977  -8.8934  -8.8915  -8.8742  -8.8728  -8.8702  -8.8495  -8.8488
    -8.8379  -8.8280  -8.7996  -8.7960  -8.7892  -8.7834  -8.7809  -8.7778
    -8.7770  -8.7733  -8.7682  -8.7626  -8.7595  -8.7424  -8.7292  -8.7107
[...]
    -3.6995  -3.6853  -3.6155  -3.5772  -3.5375  -3.5347  -3.5337  -3.5324
    -3.5173  -3.5173  -3.5123  -3.4982  -3.4905  -3.4892  -3.4415  -3.4391
    -3.4312  -3.4246  -3.4184  -3.4099  -3.4056  -3.4053  -3.4018  -3.3604
    -3.3476  -3.3433  -3.3230  -3.3034  -3.2991  -3.2911  -3.2848  -3.2844
    -3.2641  -3.2569  -3.2532  -3.2431  -3.2354  -3.2095  -3.2094  -3.2085
    -3.2079  -3.2071  -3.1970  -3.1807  -3.1670  -3.1666  -3.1543  -3.1520
    -3.1491  -3.1447  -3.1390  -3.1296  -3.1200  -3.0985  -3.0822  -3.0696
    -3.0545  -3.0432  -3.0346  -3.0042  -3.0037  -2.9714  -2.9698  -2.9634
    -2.9604  -2.9458  -2.9451  -2.9449  -2.9447  -2.9141  -2.9055  -2.8997
    -2.8953  -2.8814  -2.8749  -2.8665  -2.8584  -2.8572  -2.8513  -2.8462
    -2.8445  -2.8332  -2.8175  -2.8044  -2.8019  -2.7924  -2.7761  -2.7694
    -2.7613  -2.7510  -2.7449  -2.7397  -2.7342  -2.6958  -2.6743  -2.6509
    -2.6426  -2.6133  -2.5902  -2.5816  -2.5770  -2.5600  -2.5572  -2.5004
    -2.4961  -2.4569  -2.4517  -2.4277  -2.4172  -2.4114  -2.3852  -2.3457
    -2.3223  -2.2949  -2.2482

     the Fermi energy is    -4.6000 ev

!    total energy              =  -26031.79552255 Ry
     total all-electron energy =   -512284.365150 Ry
     estimated scf accuracy    <          2.4E-09 Ry
     smearing contrib. (-TS)   =      -0.00000002 Ry
     internal energy E=F+TS    =  -26031.79552253 Ry

     The total energy is F=E-TS. E is the sum of the following terms:
     one-electron contribution =  491279.61112680 Ry
     hartree contribution      = -245779.23685339 Ry
     xc contribution           =   -1534.67737900 Ry
     ewald contribution        = -253804.72801192 Ry
     DFT-D3 Dispersion         =      -4.02207846 Ry
     one-center paw contrib.   =  -16188.74232656 Ry

     convergence has been achieved in  12 iterations

     negative rho (up, down):  9.216E-04 0.000E+00

     Forces acting on atoms (cartesian axes, Ry/au):

     atom    1 type  1   force =    -0.00002369    0.00003058    0.00012524
     atom    2 type  1   force =    -0.00000070    0.00000295    0.00190135
     atom    3 type  1   force =     0.00003251    0.00001071    0.00000753
     atom    4 type  2   force =     0.00000114   -0.00000061   -0.00327932
     atom    5 type  2   force =    -0.00000168   -0.00006026    0.00003804
     atom    6 type  2   force =    -0.00002008    0.00014964    0.00014097
     atom    7 type  2   force =    -0.00000348    0.00000207    0.00150942
     atom    8 type  2   force =    -0.00000173    0.00004618    0.00008503
     atom    9 type  2   force =    -0.00018851   -0.00009427   -0.00002412
     atom   10 type  1   force =    -0.00001456   -0.00000169   -0.00017432
     atom   11 type  1   force =     0.00000152   -0.00000060    0.00189667
     atom   12 type  1   force =    -0.00000634   -0.00000334    0.00000795
     atom   13 type  2   force =     0.00000099   -0.00000039   -0.00327974
     atom   14 type  2   force =    -0.00000650    0.00000623   -0.00001215
     atom   15 type  2   force =    -0.00043455   -0.00025396    0.00037017
     atom   16 type  2   force =    -0.00000439   -0.00000323    0.00150989
     atom   17 type  2   force =     0.00001964    0.00001328   -0.00001359
     atom   18 type  2   force =    -0.00031281   -0.00017252   -0.00049947
     atom   19 type  1   force =     0.00007437   -0.00004290    0.00010192
     atom   20 type  1   force =     0.00000070   -0.00000055    0.00189958
     atom   21 type  1   force =     0.00002339    0.00002634   -0.00000857
     atom   22 type  2   force =     0.00000082    0.00000024   -0.00327960
     atom   23 type  2   force =     0.00000051   -0.00001478   -0.00000804
     atom   24 type  2   force =     0.00014511   -0.00004749    0.00010593
     atom   25 type  2   force =    -0.00000415   -0.00000528    0.00149795
     atom   26 type  2   force =     0.00001329    0.00000099   -0.00001544
     atom   27 type  2   force =    -0.00019753   -0.00009379   -0.00012760
     atom   28 type  1   force =     0.00001052    0.00002987   -0.00024557
     atom   29 type  1   force =     0.00000189   -0.00000122    0.00190544
     atom   30 type  1   force =    -0.00000275    0.00000208    0.00009415
     atom   31 type  2   force =     0.00000085   -0.00000013   -0.00327863
     atom   32 type  2   force =    -0.00005257    0.00002933    0.00004727
     atom   33 type  2   force =    -0.00007502    0.00004121   -0.00018251
     atom   34 type  2   force =    -0.00000690   -0.00000456    0.00150936
     atom   35 type  2   force =     0.00003720   -0.00002205    0.00007900
     atom   36 type  2   force =    -0.00001660    0.00001019   -0.00048726
     atom   37 type  1   force =     0.00031333   -0.00018970    0.00017378
     atom   38 type  1   force =     0.00000082    0.00000126    0.00189857
     atom   39 type  1   force =    -0.00003608    0.00000821   -0.00000138
     atom   40 type  2   force =     0.00000052   -0.00000058   -0.00327861
     atom   41 type  2   force =    -0.00002085   -0.00001172   -0.00002154
     atom   42 type  2   force =     0.00005516    0.00025221    0.00017208
     atom   43 type  2   force =     0.00000051    0.00000843    0.00150931
     atom   44 type  2   force =    -0.00008007   -0.00004423   -0.00005242
     atom   45 type  2   force =     0.00024650   -0.00009311   -0.00012948
     atom   46 type  1   force =     0.00013125   -0.00007569   -0.00018673
     atom   47 type  1   force =    -0.00000041    0.00000044    0.00189446
     atom   48 type  1   force =     0.00000280    0.00000883   -0.00004371
     atom   49 type  2   force =     0.00000061   -0.00000039   -0.00327998
     atom   50 type  2   force =     0.00000994    0.00000189   -0.00001348
     atom   51 type  2   force =     0.00007198   -0.00024780   -0.00002898
     atom   52 type  2   force =     0.00000015    0.00001202    0.00148553
     atom   53 type  2   force =    -0.00000422    0.00001350   -0.00001350
     atom   54 type  2   force =    -0.00001224    0.00000835   -0.00018908
     atom   55 type  1   force =    -0.00000462    0.00001409   -0.00017464
     atom   56 type  1   force =     0.00000112   -0.00000088    0.00189815
     atom   57 type  1   force =     0.00001003   -0.00000559   -0.00004250
     atom   58 type  2   force =     0.00000048   -0.00000033   -0.00327893
     atom   59 type  2   force =     0.00000050   -0.00000047   -0.00003679
     atom   60 type  2   force =    -0.00019367    0.00011137   -0.00009422
[...]
     atom  132 type  2   force =    -0.00018991   -0.00017205    0.00017038
     atom  133 type  2   force =    -0.00000264   -0.00000611    0.00149355
     atom  134 type  2   force =    -0.00000185    0.00009130   -0.00005144
     atom  135 type  2   force =     0.00020251   -0.00016688   -0.00012781
     atom  136 type  1   force =    -0.00005847    0.00003348   -0.00016931
     atom  137 type  1   force =    -0.00000306   -0.00000117    0.00190135
     atom  138 type  1   force =     0.00000727   -0.00003338    0.00000774
     atom  139 type  2   force =     0.00000067   -0.00000027   -0.00328001
     atom  140 type  2   force =     0.00005145    0.00003169    0.00003818
     atom  141 type  2   force =    -0.00013745   -0.00005907    0.00013965
     atom  142 type  2   force =    -0.00001033   -0.00000602    0.00148555
     atom  143 type  2   force =    -0.00004078   -0.00002187    0.00008450
     atom  144 type  2   force =    -0.00001187    0.00021139   -0.00002388
     atom  145 type  3   force =    -0.00013406    0.00007758   -0.00022659
     atom  146 type  4   force =    -0.00013734    0.00007845   -0.00085075

     Total force =     0.002580     Total SCF correction =     0.000382
     SCF correction compared to forces is large: reduce conv_thr to get better values
     Energy error            =      1.3E-05 Ry
     Gradient error          =      8.5E-04 Ry/Bohr

     bfgs converged in  16 scf cycles and  15 bfgs steps
     (criteria: energy <  1.0E-04 Ry, force <  1.0E-03 Ry/Bohr)

     End of BFGS Geometry Optimization

     Final energy             =  -26031.7955225522 Ry

     File ./outdir/pwscf.bfgs deleted, as requested
Begin final coordinates

ATOMIC_POSITIONS (angstrom)
Mo               1.5707150952        2.7134414981        6.0801523888
Mo               1.5769197498        0.9104407117       -6.0872367793    0   0   0
Mo              -0.0002380239        1.8211421733        0.0002078084
S                0.0000044503        0.0000077495       -7.6506323570    0   0   0
S                1.5765471088        0.9115523237       -1.5665062078
S                0.0006806146        1.8248547282        4.4962589459
S                0.0000053241        0.0000068460       -4.5222282367    0   0   0
S                1.5774004998        0.9097207449        1.5652957808
S                0.0008318857        1.8013412297        7.6419332941
Mo              -0.0159454997        5.4669088159        6.0874944478
Mo               0.0000011799        3.6417399547       -6.0872367793    0   0   0
Mo              -1.5767385113        4.5521957325       -0.0003157804
S               -1.5769141197        2.7313069925       -7.6506323570    0   0   0
S               -0.0001332509        3.6414544614       -1.5657975869
S               -1.5707718806        4.5543076003        4.5033069226
S               -1.5769132459        2.7313060890       -4.5222282367    0   0   0
S                0.0013151429        3.6428117771        1.5670212110
S               -1.5917696602        4.5514079395        7.6462387121
Mo              -1.5792702487        8.1952476972        6.0668548507
Mo              -1.5769173901        6.3730391977       -6.0872367793    0   0   0
Mo              -3.1540277808        7.2830357741       -0.0016578081
S               -3.1538326896        5.4626062355       -7.6506323570    0   0   0
S               -1.5769969237        6.3724497398       -1.5667683196
S               -3.1545742874        7.2849424385        4.4974593578
S               -3.1538318159        5.4626053320       -4.5222282367    0   0   0
S               -1.5767559749        6.3737075909        1.5654626299
S               -3.1480411958        7.2977691560        7.6386671004
Mo               3.1524534690       -0.0027840692        6.0702033758
Mo              -3.1538359601        9.1043384407       -6.0872367793    0   0   0
Mo              -4.7308960077       10.0148363220       -0.0026725424
S               -4.7307512596        8.1939054785       -7.6506323570    0   0   0
S               -3.1534775647        9.1041166577       -1.5675200174
S               -4.7278729604       10.0131041428        4.4983890058
S               -4.7307503859        8.1939045750       -4.5222282367    0   0   0
S               -3.1540878820        9.1044674163        1.5638786636
S               -4.7325879732       10.0158097171        7.6347376009
Mo               4.7208153021        2.7131830735        6.0946750042
Mo               4.7307503218        0.9104407117       -6.0872367793    0   0   0
Mo               3.1541509712        1.8211735113       -0.0006582954
S                3.1538350223        0.0000077495       -7.6506323570    0   0   0
S                4.7313629340        0.9112755137       -1.5660778757
S                3.1548760952        1.8233897897        4.5080680552
S                3.1538358961        0.0000068460       -4.5222282367    0   0   0
S                4.7313641712        0.9106725523        1.5668945423
S                3.1367453704        1.8084115875        7.6494300868
Mo               3.1528860638        5.4631298784        6.1431537761
Mo               3.1538317519        3.6417399547       -6.0872367793    0   0   0
Mo               1.5772576283        4.5522170855       -0.0011178594
S                1.5769164523        2.7313069925       -7.6506323570    0   0   0
S                3.1540443819        3.6416853203       -1.5663768059
S                1.6019337422        4.5692640439        4.5622507728
S                1.5769173261        2.7313060890       -4.5222282367    0   0   0
S                3.1536933526        3.6421232360        1.5669108415
S                1.4483080071        4.4763641862        7.7233064843
Mo               1.5651928547        8.2055327523        6.0874994348
Mo               1.5769131819        6.3730391977       -6.0872367793    0   0   0
Mo               0.0000163095        7.2834437402       -0.0017090642
S               -0.0000021176        5.4626062355       -7.6506323570    0   0   0
S                1.5771197114        6.3729018611       -1.5668206915
S                0.0054342226        7.2803159073        4.5112470403
[...]
S                6.3059789759        7.2812828193        4.5080616070
S                6.3076599001        5.4626053320       -4.5222282367    0   0   0
S                7.8846656717        6.3723630351        1.5668927736
S                6.3098942750        7.3044796586        7.6494149478
Mo              -0.0000353565        0.0000128104        6.0599293615
Mo               6.3076557559        9.1043384407       -6.0872367793    0   0   0
Mo               4.7303698223       10.0148175928        0.0002081642
S                4.7307404564        8.1939054785       -7.6506323570    0   0   0
S                6.3064904059        9.1040760585       -1.5665051073
S                4.7276045239       10.0121745573        4.4962616821
S                4.7307413301        8.1939045750       -4.5222282367    0   0   0
S                6.3085035808        9.1042553854        1.5652987433
S                4.7480505927       10.0237859018        7.6419310895
Pt               3.1650432192        5.4561157548        8.8861914650
Pd               7.8761234651        2.7361785501        9.0135551383
End final coordinates

     Writing all to output data dir ./outdir/pwscf.save/ :
     XML data file, charge density, pseudopotentials, collected wavefunctions

     General routines

     Parallel routines

   This run was terminated on:   8:17: 2  10Mar2024

   JOB DONE.